     Program PWSCF v.6.3MaX starts on 26Nov2020 at  9:15: 5

     R & G space division:  proc/nbgrp/npool/nimage =       8
     Waiting for input...
     Reading input from standard input

     Current dimensions of program PWSCF are:
     Max number of different atomic species (ntypx) = 10
     Max number of k-points (npk) =  40000
     Max angular momentum in pseudopotentials (lmaxx) =  3

     Subspace diagonalization in iterative solution of the eigenvalue problem:
     a serial algorithm will be used

     bravais-lattice index     =            4
     lattice parameter (alat)  =      33.6810  a.u.
     unit-cell volume          =   37130.3117 (a.u.)^3
     number of atoms/cell      =           31
     number of atomic types    =            1
     number of electrons       =        93.00
     number of Kohn-Sham states=           56
     kinetic-energy cutoff     =      80.0000  Ry
     charge density cutoff     =     320.0000  Ry
     convergence threshold     =      1.0E-06
     mixing beta               =       0.4000
     number of iterations used =            8  plain     mixing
     Exchange-correlation      = PBE ( 1  4  3  4 0 0)
     nstep                     =          300

     celldm(1)=  33.680967  celldm(2)=   0.000000  celldm(3)=   1.122133
     celldm(4)=   0.000000  celldm(5)=   0.000000  celldm(6)=   0.000000

     crystal axes: (cart. coord. in units of alat)
               a(1) = (   1.000000   0.000000   0.000000 )
               a(2) = (  -0.500000   0.866025   0.000000 )
               a(3) = (   0.000000   0.000000   1.122133 )

     reciprocal axes: (cart. coord. in units 2 pi/alat)
               b(1) = (  1.000000  0.577350  0.000000 )
               b(2) = (  0.000000  1.154701  0.000000 )
               b(3) = (  0.000000  0.000000  0.891160 )

     PseudoPot. # 1 for Al read from file:
     ./Al.upf
     MD5 check sum: 4974d48a734c9d7d1eb6780a1419d19d
     Pseudo is Norm-conserving + core correction, Zval =  3.0
     Generated using ONCVPSP code by D. R. Hamann
     Using radial grid of 1876 points,  6 beta functions with:
                l(1) =   0
                l(2) =   0
                l(3) =   1
                l(4) =   1
                l(5) =   2
                l(6) =   2

     atomic species   valence    mass     pseudopotential
        Al             3.00    29.98200     Al( 1.00)

      4 Sym. Ops. (no inversion) found ( 2 have fractional translation)

   Cartesian axes

     site n.     atom                  positions (alat units)
         1           Al  tau(   1) = (  -0.0000000   0.1443393   0.0000000  )
         2           Al  tau(   2) = (   0.1250015   0.0721696   0.0000000  )
         3           Al  tau(   3) = (  -0.1249997   0.3608472   0.0000000  )
         4           Al  tau(   4) = (   0.0000018   0.2886775   0.0000000  )
         5           Al  tau(   5) = (  -0.2499994   0.5773550   0.0000000  )
         6           Al  tau(   6) = (  -0.1249979   0.5051854   0.0000000  )
         7           Al  tau(   7) = (  -0.3749991   0.7938629   0.0000000  )
         8           Al  tau(   8) = (  -0.2499976   0.7216932   0.0000000  )
         9           Al  tau(   9) = (   0.2500011   0.1443403   0.0000000  )
        10           Al  tau(  10) = (   0.3750027   0.0721706   0.0000000  )
        11           Al  tau(  11) = (   0.1250014   0.3608482   0.0000000  )
        12           Al  tau(  12) = (   0.2500030   0.2886785   0.0000000  )
        13           Al  tau(  13) = (   0.0000017   0.5773560   0.0000000  )
        14           Al  tau(  14) = (   0.1250033   0.5051864   0.0000000  )
        15           Al  tau(  15) = (  -0.1249980   0.7938639   0.0000000  )
        16           Al  tau(  16) = (   0.0000036   0.7216942   0.0000000  )
        17           Al  tau(  17) = (   0.5000023   0.1443413   0.0000000  )
        18           Al  tau(  18) = (   0.6250038   0.0721717   0.0000000  )
        19           Al  tau(  19) = (   0.3750026   0.3608492   0.0000000  )
        20           Al  tau(  20) = (   0.5000041   0.2886795   0.0000000  )
        21           Al  tau(  21) = (   0.2500029   0.5773571   0.0000000  )
        22           Al  tau(  22) = (   0.3750044   0.5051874   0.0000000  )
        23           Al  tau(  23) = (   0.1250032   0.7938649   0.0000000  )
        24           Al  tau(  24) = (   0.2500047   0.7216953   0.0000000  )
        25           Al  tau(  25) = (   0.7500035   0.1443423   0.0000000  )
        26           Al  tau(  26) = (   0.8750050   0.0721727   0.0000000  )
        27           Al  tau(  27) = (   0.6250038   0.3608502   0.0000000  )
        28           Al  tau(  28) = (   0.5000041   0.5773581   0.0000000  )
        29           Al  tau(  29) = (   0.6250056   0.5051884   0.0000000  )
        30           Al  tau(  30) = (   0.3750044   0.7938660   0.0000000  )
        31           Al  tau(  31) = (   0.5000059   0.7216963   0.0000000  )

     number of k points=     1  Methfessel-Paxton smearing, width (Ry)=  0.0500
                       cart. coord. in units 2pi/alat
        k(    1) = (   0.0000000   0.0000000   0.0000000), wk =   2.0000000

     Initial potential from superposition of free atoms

     starting charge   92.92414, renormalised to   93.00000

     negative rho (up, down):  9.278E-05 0.000E+00
     Starting wfcs are  124 randomized atomic wfcs

     Self-consistent Calculation

     iteration #  1     ecut=    80.00 Ry     beta= 0.40
     Davidson diagonalization with overlap
     ethr =  1.00E-02,  avg # of iterations =  2.0

     total energy              =    -140.64220290 Ry
     Harris-Foulkes estimate   =    -141.23601270 Ry
     estimated scf accuracy    <       1.54855223 Ry

[...]

     negative rho (up, down):  7.318E-08 0.000E+00

[...]

     End of self-consistent calculation

          k = 0.0000 0.0000 0.0000 (448403 PWs)   bands (ev):

    -9.9530  -9.4486  -9.4331  -9.4326  -9.4261  -9.4256  -9.1458  -8.4050
    -8.4048  -8.3881  -8.3881  -8.3796  -8.3032  -8.2570  -8.2569  -7.5863
    -6.9326  -6.9324  -6.8233  -6.4864  -6.4773  -6.4772  -6.3702  -6.3700
    -5.4639  -4.8436  -4.8434  -4.8371  -4.7357  -4.7354  -4.4782  -4.4683
    -4.4428  -4.4427  -4.1224  -4.1221  -3.9779  -3.4715  -3.4687  -3.4684
    -3.4578  -3.4575  -3.4018  -3.2746  -3.2743  -3.2223  -3.2071  -2.9742
    -2.9652  -2.9652  -2.9389  -2.5201  -2.5197  -2.4494  -2.4475  -2.4314

     the Fermi energy is    -3.0910 ev

!    total energy              =    -140.93611916 Ry
     Harris-Foulkes estimate   =    -140.93612002 Ry
     estimated scf accuracy    <       0.00000100 Ry

     The total energy is the sum of the following terms:

     one-electron contribution =    -502.03629779 Ry
     hartree contribution      =     259.76353045 Ry
     xc contribution           =     -61.33579695 Ry
     ewald contribution        =     162.75341060 Ry
     smearing contrib. (-TS)   =      -0.08096547 Ry

     convergence has been achieved in  17 iterations

[...]

     Forces acting on atoms (cartesian axes, Ry/au):

     atom    1 type  1   force =    -0.00105833    0.00056740    0.00000000
     atom    2 type  1   force =     0.00108918   -0.00055522    0.00000000
     atom    3 type  1   force =    -0.01310536   -0.00751639    0.00000000
     atom    4 type  1   force =     0.00257207   -0.00212676    0.00000000
     atom    5 type  1   force =     0.00000000   -0.00130076    0.00000000
     atom    6 type  1   force =    -0.00064163    0.00324995    0.00000000
     atom    7 type  1   force =    -0.00041547   -0.00030500    0.00000000
     atom    8 type  1   force =     0.00000000    0.00131741    0.00000000
     atom    9 type  1   force =     0.00000000    0.00052857    0.00000000
     atom   10 type  1   force =    -0.00108918   -0.00055522    0.00000000
     atom   11 type  1   force =    -0.00373303   -0.00399019    0.00000000
     atom   12 type  1   force =     0.00000000    0.00230212    0.00000000
     atom   13 type  1   force =    -0.00531016   -0.00115095    0.00000000
     atom   14 type  1   force =     0.00188959    0.00106823    0.00000000
     atom   15 type  1   force =     0.00041547   -0.00030500    0.00000000
     atom   16 type  1   force =     0.00205760   -0.00121982    0.00000000
     atom   17 type  1   force =     0.00105833    0.00056740    0.00000000
     atom   18 type  1   force =    -0.00318959   -0.00107729    0.00000000
     atom   19 type  1   force =     0.00373303   -0.00399019    0.00000000
     atom   20 type  1   force =    -0.00257207   -0.00212676    0.00000000
     atom   21 type  1   force =     0.00000000   -0.00000116    0.00000000
     atom   22 type  1   force =    -0.00188959    0.00106823    0.00000000
     atom   23 type  1   force =    -0.00159312    0.00512697    0.00000000
     atom   24 type  1   force =     0.00000000   -0.00213685    0.00000000
     atom   25 type  1   force =     0.00000000    0.01514884    0.00000000
     atom   26 type  1   force =     0.00318959   -0.00107729    0.00000000
     atom   27 type  1   force =     0.01310536   -0.00751639    0.00000000
     atom   28 type  1   force =     0.00531016   -0.00115095    0.00000000
     atom   29 type  1   force =     0.00064163    0.00324995    0.00000000
     atom   30 type  1   force =     0.00159312    0.00512697    0.00000000
     atom   31 type  1   force =    -0.00205760   -0.00121982    0.00000000

     Total force =     0.031147     Total SCF correction =     0.000831

     Computing stress (Cartesian axis) and pressure

     negative rho (up, down):  8.596E-05 0.000E+00
          total   stress  (Ry/bohr**3)                   (kbar)     P=   -0.57
  -0.00000581   0.00000000   0.00000000         -0.85      0.00      0.00
   0.00000000  -0.00000575   0.00000000          0.00     -0.85      0.00
   0.00000000  -0.00000000   0.00000000          0.00     -0.00      0.00

     BFGS Geometry Optimization

     number of scf cycles    =   1
     number of bfgs steps    =   0

     enthalpy new            =    -140.9361191607 Ry

     new trust radius        =       0.0151488397 bohr
     new conv_thr            =       0.0000010000 Ry

     new unit-cell volume =  37119.57909 a.u.^3 (  5500.55405 Ang^3 )
     density =      0.28059 g/cm^3

CELL_PARAMETERS (alat= 33.68096681)
   0.999854743   0.000000000   0.000000000
  -0.499927372   0.865900855   0.000000000
   0.000000000   0.000000000   1.122132950

ATOMIC_POSITIONS (angstrom)
Al      -0.000560550   2.572518098   0.000000000
Al       2.228179406   1.285814668   0.000000000
Al      -2.234505663   6.426549089   0.000000000
Al       0.001392975   5.143291299   0.000000000
Al      -4.455142637  10.288145920   0.000000000
Al      -2.227878418   9.004444254   0.000000000
Al      -6.682933489  14.146980910   0.000000000
Al      -4.455109957  12.861729880   0.000000000
Al       4.455172974   2.572515746   0.000000000
Al       6.682200393   1.285832862   0.000000000
Al       2.225626802   6.428433002   0.000000000
Al       4.455205654   5.145652815   0.000000000
Al      -0.002778684  10.288243380   0.000000000
Al       2.228634413   9.003308100   0.000000000
Al      -2.227320276  14.146999104   0.000000000
[...]

     CASE: enthalpy_new < enthalpy_old

     WARNING: bfgs curvature condition failed, Theta= 0.853
     new trust radius        =       0.0227199915 bohr
     new conv_thr            =       0.0000009988 Ry

[...]

     Writing output data file 28al_planar_2x2_vcr.save/
     NEW-OLD atomic charge density approx. for the potential

[...]

     Writing output data file 28al_planar_2x2_vcr.save/
     NEW-OLD atomic charge density approx. for the potential
     Check: negative starting charge=   -0.000121

[...]

     Writing output data file 28al_planar_2x2_vcr.save/
     Check: negative starting charge=   -0.000121
     NEW-OLD atomic charge density approx. for the potential
     Check: negative starting charge=   -0.000133

[...]

     iteration #  1     ecut=    80.00 Ry     beta= 0.40
     Davidson diagonalization with overlap
     c_bands:  1 eigenvalues not converged
     ethr =  1.00E-06,  avg # of iterations = 20.0

[...]

     WARNING: bfgs curvature condition failed, Theta= 0.399
     new trust radius        =       0.8000000000 bohr
     new conv_thr            =       0.0000010000 Ry

[...]

     CASE: enthalpy_new > enthalpy_old

[...]

     Threshold (ethr) on eigenvalues was too large:
     Diagonalizing with lowered threshold

     Davidson diagonalization with overlap
     ethr =  6.12E-08,  avg # of iterations =  6.0

[...]

     Total force =     0.000489     Total SCF correction =     0.000050
     SCF correction compared to forces is large: reduce conv_thr to get better values

[...]

     Total force =     0.000591     Total SCF correction =     0.000084
     SCF correction compared to forces is large: reduce conv_thr to get better values

[...]

     CASE: enthalpy_new < enthalpy_old

[...]

     new trust radius        =       0.0012956673 bohr
     new conv_thr            =       0.0000000100 Ry

[...]

     new trust radius        =       0.0000955184 bohr

     trust_radius < trust_radius_min

     resetting bfgs history

     new conv_thr            =       0.0000000100 Ry

[...]

     negative rho (up, down):  2.761E-05 0.000E+00
     extrapolated charge   92.99853, renormalised to   93.00000

[...]

     number of scf cycles    = 156
     number of bfgs steps    = 152

     enthalpy old            =    -141.8517499534 Ry
     enthalpy new            =    -141.8516731038 Ry

     CASE: enthalpy_new > enthalpy_old

     new trust radius        =       0.0000014565 bohr

     trust_radius < trust_radius_min

     resetting bfgs history

     Message from routine bfgs:
     history already reset at previous step: stopping
     new conv_thr            =       0.0000000100 Ry

     new unit-cell volume =  28244.53368 a.u.^3 (  4185.40802 Ang^3 )
     density =      0.36875 g/cm^3

[...]

ATOMIC_POSITIONS (angstrom)
Al       0.023346540   1.112981087   0.000000000
Al       2.487163411   1.502699986   0.000000000
Al      -2.427310090   5.596361845   0.000000000
Al      -0.986096698   3.513559701   0.000000000
Al      -3.858925208  10.342436738   0.000000000
Al      -2.513851939   8.102052342   0.000000000
Al      -6.276001547  12.267375300   0.000000000
Al      -3.858896902  12.887343612   0.000000000
Al       3.858951485   3.631261580   0.000000000
Al       5.230768881   1.502715969   0.000000000
Al       1.405462720   4.727591973   0.000000000
Al       3.858979792   6.045797507   0.000000000
Al      -0.593999476   9.780327445   0.000000000
Al       1.106830454   7.446940290   0.000000000
Al      -1.441821578  12.267391282   0.000000000
Al       1.988720053  10.043686936   0.000000000
Al       7.694556430   1.113013051   0.000000000
Al      10.257530834   1.160759086   0.000000000
Al       6.312467541   4.727607955   0.000000000
Al       8.704056281   3.513591666   0.000000000
Al       3.858978777   8.460369153   0.000000000
Al       6.611156422   7.446956273   0.000000000
Al       1.231312468  12.429563777   0.000000000
Al       3.859007084  12.237120658   0.000000000
Al      11.576855470   3.431264223   0.000000000
Al      12.896209428   1.160775069   0.000000000
Al      10.145240352   5.596409792   0.000000000
Al       8.311957029   9.780359409   0.000000000
Al      10.231838814   8.102100289   0.000000000
Al       6.486672377  12.429579760   0.000000000
Al       5.729294115  10.043718901   0.000000000

     Writing output data file 28al_planar_2x2_vcr.save/
     Check: negative starting charge=   -0.000136
     NEW-OLD atomic charge density approx. for the potential
     Check: negative starting charge=   -0.000136

[...]

     Threshold (ethr) on eigenvalues was too large:
     Diagonalizing with lowered threshold

     Davidson diagonalization with overlap
     ethr =  8.04E-11,  avg # of iterations =  5.0

[...]

     bfgs converged in 157 scf cycles and 152 bfgs steps
     (criteria: energy <  1.0E-05 Ry, force <  1.0E-04Ry/Bohr, cell <  5.0E-05kbar)

     End of BFGS Geometry Optimization

     Final enthalpy =    -141.8516730973 Ry
Begin final coordinates
     new unit-cell volume =  28244.53368 a.u.^3 (  4185.40802 Ang^3 )
     density =      0.36875 g/cm^3

CELL_PARAMETERS (alat= 33.68096681)
   0.866047395   0.000000000   0.000000000
  -0.433023697   0.760667368   0.000000000
   0.000000000   0.000000000   1.122132950

ATOMIC_POSITIONS (angstrom)
Al       0.023346540   1.112981087   0.000000000
Al       2.487163411   1.502699986   0.000000000
Al      -2.427310090   5.596361845   0.000000000
Al      -0.986096698   3.513559701   0.000000000
Al      -3.858925208  10.342436738   0.000000000
Al      -2.513851939   8.102052342   0.000000000
Al      -6.276001547  12.267375300   0.000000000
Al      -3.858896902  12.887343612   0.000000000
Al       3.858951485   3.631261580   0.000000000
Al       5.230768881   1.502715969   0.000000000
Al       1.405462720   4.727591973   0.000000000
Al       3.858979792   6.045797507   0.000000000
Al      -0.593999476   9.780327445   0.000000000
Al       1.106830454   7.446940290   0.000000000
Al      -1.441821578  12.267391282   0.000000000
Al       1.988720053  10.043686936   0.000000000
Al       7.694556430   1.113013051   0.000000000
Al      10.257530834   1.160759086   0.000000000
Al       6.312467541   4.727607955   0.000000000
Al       8.704056281   3.513591666   0.000000000
Al       3.858978777   8.460369153   0.000000000
Al       6.611156422   7.446956273   0.000000000
Al       1.231312468  12.429563777   0.000000000
Al       3.859007084  12.237120658   0.000000000
Al      11.576855470   3.431264223   0.000000000
Al      12.896209428   1.160775069   0.000000000
Al      10.145240352   5.596409792   0.000000000
Al       8.311957029   9.780359409   0.000000000
Al      10.231838814   8.102100289   0.000000000
Al       6.486672377  12.429579760   0.000000000
Al       5.729294115  10.043718901   0.000000000
End final coordinates

     Writing output data file 28al_planar_2x2_vcr.save/

     A final scf calculation at the relaxed structure.
     The G-vectors are recalculated for the final unit cell
     Results may differ from those at the preceding step.

     bravais-lattice index     =            4
     lattice parameter (alat)  =      33.6810  a.u.
     unit-cell volume          =   28244.5337 (a.u.)^3
     number of atoms/cell      =           31
     number of atomic types    =            1
     number of electrons       =        93.00
     number of Kohn-Sham states=           56
     kinetic-energy cutoff     =      80.0000  Ry
     charge density cutoff     =     320.0000  Ry
     convergence threshold     =      1.0E-08
     mixing beta               =       0.4000
     number of iterations used =            8  plain     mixing
     Exchange-correlation      = PBE ( 1  4  3  4 0 0)

     celldm(1)=  33.680967  celldm(2)=   0.000000  celldm(3)=   1.122133
     celldm(4)=   0.000000  celldm(5)=   0.000000  celldm(6)=   0.000000

     crystal axes: (cart. coord. in units of alat)
               a(1) = (   0.866047   0.000000   0.000000 )
               a(2) = (  -0.433024   0.760667   0.000000 )
               a(3) = (   0.000000   0.000000   1.122133 )

     reciprocal axes: (cart. coord. in units 2 pi/alat)
               b(1) = (  1.154671  0.657318  0.000000 )
               b(2) = ( -0.000000  1.314635  0.000000 )
               b(3) = (  0.000000  0.000000  0.891160 )

     PseudoPot. # 1 for Al read from file:
     ./Al.upf
     MD5 check sum: 4974d48a734c9d7d1eb6780a1419d19d
     Pseudo is Norm-conserving + core correction, Zval =  3.0
     Generated using ONCVPSP code by D. R. Hamann
     Using radial grid of 1876 points,  6 beta functions with:
                l(1) =   0
                l(2) =   0
                l(3) =   1
                l(4) =   1
                l(5) =   2
                l(6) =   2

     atomic species   valence    mass     pseudopotential
        Al             3.00    29.98200     Al( 1.00)

      4 Sym. Ops. (no inversion) found ( 2 have fractional translation)

   Cartesian axes

     site n.     atom                  positions (alat units)
         1           Al  tau(   1) = (   0.0013099   0.0624456   0.0000000  )
         2           Al  tau(   2) = (   0.1395464   0.0843115   0.0000000  )
         3           Al  tau(   3) = (  -0.1361882   0.3139931   0.0000000  )
         4           Al  tau(   4) = (  -0.0553266   0.1971341   0.0000000  )
         5           Al  tau(   5) = (  -0.2165114   0.5802795   0.0000000  )
         6           Al  tau(   6) = (  -0.1410438   0.4545790   0.0000000  )
         7           Al  tau(   7) = (  -0.3521254   0.6882813   0.0000000  )
         8           Al  tau(   8) = (  -0.2165098   0.7230656   0.0000000  )
         9           Al  tau(   9) = (   0.2165128   0.2037379   0.0000000  )
        10           Al  tau(  10) = (   0.2934809   0.0843124   0.0000000  )
        11           Al  tau(  11) = (   0.0788558   0.2652493   0.0000000  )
        12           Al  tau(  12) = (   0.2165144   0.3392094   0.0000000  )
        13           Al  tau(  13) = (  -0.0333273   0.5487414   0.0000000  )
        14           Al  tau(  14) = (   0.0621005   0.4178229   0.0000000  )
        15           Al  tau(  15) = (  -0.0808958   0.6882822   0.0000000  )
        16           Al  tau(  16) = (   0.1115804   0.5635176   0.0000000  )
        17           Al  tau(  17) = (   0.4317158   0.0624474   0.0000000  )
        18           Al  tau(  18) = (   0.5755157   0.0651263   0.0000000  )
        19           Al  tau(  19) = (   0.3541714   0.2652502   0.0000000  )
        20           Al  tau(  20) = (   0.4883554   0.1971358   0.0000000  )
        21           Al  tau(  21) = (   0.2165144   0.4746829   0.0000000  )
        22           Al  tau(  22) = (   0.3709298   0.4178238   0.0000000  )
        23           Al  tau(  23) = (   0.0690848   0.6973812   0.0000000  )
        24           Al  tau(  24) = (   0.2165160   0.6865838   0.0000000  )
        25           Al  tau(  25) = (   0.6495385   0.1925167   0.0000000  )
        26           Al  tau(  26) = (   0.7235631   0.0651272   0.0000000  )
        27           Al  tau(  27) = (   0.5692154   0.3139958   0.0000000  )
        28           Al  tau(  28) = (   0.4663560   0.5487432   0.0000000  )
        29           Al  tau(  29) = (   0.5740742   0.4545817   0.0000000  )
        30           Al  tau(  30) = (   0.3639454   0.6973821   0.0000000  )
        31           Al  tau(  31) = (   0.3214515   0.5635194   0.0000000  )

     number of k points=     1  Methfessel-Paxton smearing, width (Ry)=  0.0500
                       cart. coord. in units 2pi/alat
        k(    1) = (   0.0000000   0.0000000   0.0000000), wk =   2.0000000

     Initial potential from superposition of free atoms

     starting charge   92.92414, renormalised to   93.00000

     negative rho (up, down):  7.478E-05 0.000E+00
     Starting wfcs are  124 randomized atomic wfcs

     Self-consistent Calculation

     iteration #  1     ecut=    80.00 Ry     beta= 0.40
     Davidson diagonalization with overlap
     c_bands:  1 eigenvalues not converged
     ethr =  1.00E-06,  avg # of iterations = 20.0

[...]

     total energy              =    -141.85150069 Ry
     Harris-Foulkes estimate   =    -141.85150070 Ry
     estimated scf accuracy    <       0.00000002 Ry

     iteration # 19     ecut=    80.00 Ry     beta= 0.40
     Davidson diagonalization with overlap
     ethr =  2.44E-11,  avg # of iterations =  3.0

[...]

     End of self-consistent calculation

          k = 0.0000 0.0000 0.0000 (341163 PWs)   bands (ev):

   -11.3527 -10.7456 -10.6737 -10.5523 -10.3862 -10.2836  -9.9013  -9.1556
    -8.9079  -8.8963  -8.8161  -8.6632  -8.3826  -8.2888  -8.1560  -7.9280
    -7.7594  -7.7015  -7.3530  -6.0959  -6.0551  -6.0422  -5.8288  -5.7886
    -5.6956  -5.6491  -5.5638  -5.4572  -5.2944  -5.0563  -5.0533  -4.7177
    -4.5946  -4.3170  -4.1663  -4.0906  -4.0428  -3.9809  -3.8561  -3.7991
    -3.7238  -3.5001  -3.4950  -3.4745  -2.5765  -2.4296  -2.3917  -2.3677
    -2.3588  -2.2952  -2.2682  -2.1004  -2.0135  -1.9869  -1.7797  -1.6681

     the Fermi energy is    -2.5262 ev

!    total energy              =    -141.85150068 Ry
     Harris-Foulkes estimate   =    -141.85150069 Ry
     estimated scf accuracy    <          9.1E-09 Ry

     The total energy is the sum of the following terms:

     one-electron contribution =    -652.05121498 Ry
     hartree contribution      =     334.94148279 Ry
     xc contribution           =     -63.19130671 Ry
     ewald contribution        =     238.48949435 Ry
     smearing contrib. (-TS)   =      -0.03995615 Ry

     convergence has been achieved in  19 iterations

     negative rho (up, down):  2.759E-05 0.000E+00

     Forces acting on atoms (cartesian axes, Ry/au):

     atom    1 type  1   force =    -0.00019153    0.00031868    0.00000000
     atom    2 type  1   force =     0.00010753   -0.00004939    0.00000000
     atom    3 type  1   force =    -0.00044017   -0.00016571    0.00000000
     atom    4 type  1   force =     0.00015227   -0.00016575    0.00000000
     atom    5 type  1   force =     0.00000000   -0.00021215    0.00000000
     atom    6 type  1   force =    -0.00005946   -0.00032262    0.00000000
     atom    7 type  1   force =     0.00030583   -0.00066127    0.00000000
     atom    8 type  1   force =    -0.00000000    0.00059209    0.00000000
     atom    9 type  1   force =    -0.00000000    0.00074944    0.00000000
     atom   10 type  1   force =    -0.00010753   -0.00004939    0.00000000
     atom   11 type  1   force =    -0.00016241   -0.00004043    0.00000000
     atom   12 type  1   force =     0.00000000   -0.00029907    0.00000000
     atom   13 type  1   force =    -0.00059142    0.00039938    0.00000000
     atom   14 type  1   force =     0.00010925   -0.00016019    0.00000000
     atom   15 type  1   force =    -0.00030583   -0.00066127    0.00000000
     atom   16 type  1   force =     0.00003016    0.00003264    0.00000000
     atom   17 type  1   force =     0.00019153    0.00031868    0.00000000
     atom   18 type  1   force =     0.00025495   -0.00049709    0.00000000
     atom   19 type  1   force =     0.00016241   -0.00004043    0.00000000
     atom   20 type  1   force =    -0.00015227   -0.00016575    0.00000000
     atom   21 type  1   force =    -0.00000000    0.00022572    0.00000000
     atom   22 type  1   force =    -0.00010925   -0.00016019    0.00000000
     atom   23 type  1   force =     0.00032143   -0.00047583    0.00000000
     atom   24 type  1   force =    -0.00000000    0.00085248    0.00000000
     atom   25 type  1   force =    -0.00000000    0.00166666    0.00000000
     atom   26 type  1   force =    -0.00025495   -0.00049709    0.00000000
     atom   27 type  1   force =     0.00044017   -0.00016571    0.00000000
     atom   28 type  1   force =     0.00059142    0.00039938    0.00000000
     atom   29 type  1   force =     0.00005946   -0.00032262    0.00000000
     atom   30 type  1   force =    -0.00032143   -0.00047583    0.00000000
     atom   31 type  1   force =    -0.00003016    0.00003264    0.00000000

     Total force =     0.003027     Total SCF correction =     0.000100

     Computing stress (Cartesian axis) and pressure

     negative rho (up, down):  2.759E-05 0.000E+00
          total   stress  (Ry/bohr**3)                   (kbar)     P=    0.05
  -0.00000007   0.00000000   0.00000000         -0.01      0.00      0.00
   0.00000000   0.00000109   0.00000000          0.00      0.16      0.00
   0.00000000   0.00000000  -0.00000001          0.00      0.00     -0.00

     Writing output data file 28al_planar_2x2_vcr.save/

     General routines

     Parallel routines

      51h

   This run was terminated on:   0: 6:16  27Nov2020

   JOB DONE.