     Program PWSCF v.6.3MaX starts on 26Nov2020 at  8:36:18

     R & G space division:  proc/nbgrp/npool/nimage =       8
     Waiting for input...
     Reading input from standard input

     Current dimensions of program PWSCF are:
     Max number of different atomic species (ntypx) = 10
     Max number of k-points (npk) =  40000
     Max angular momentum in pseudopotentials (lmaxx) =  3

     Subspace diagonalization in iterative solution of the eigenvalue problem:
     a serial algorithm will be used

     bravais-lattice index     =            4
     lattice parameter (alat)  =      33.6810  a.u.
     unit-cell volume          =   37130.3117 (a.u.)^3
     number of atoms/cell      =           31
     number of atomic types    =            1
     number of electrons       =        93.00
     number of Kohn-Sham states=           56
     kinetic-energy cutoff     =      80.0000  Ry
     charge density cutoff     =     320.0000  Ry
     convergence threshold     =      1.0E-06
     mixing beta               =       0.4000
     number of iterations used =            8  plain     mixing
     Exchange-correlation      = PBE ( 1  4  3  4 0 0)
     nstep                     =          300

     celldm(1)=  33.680967  celldm(2)=   0.000000  celldm(3)=   1.122133
     celldm(4)=   0.000000  celldm(5)=   0.000000  celldm(6)=   0.000000

     crystal axes: (cart. coord. in units of alat)
               a(1) = (   1.000000   0.000000   0.000000 )
               a(2) = (  -0.500000   0.866025   0.000000 )
               a(3) = (   0.000000   0.000000   1.122133 )

     reciprocal axes: (cart. coord. in units 2 pi/alat)
               b(1) = (  1.000000  0.577350  0.000000 )
               b(2) = (  0.000000  1.154701  0.000000 )
               b(3) = (  0.000000  0.000000  0.891160 )

     PseudoPot. # 1 for Al read from file:
     ./Al.upf
     MD5 check sum: 4974d48a734c9d7d1eb6780a1419d19d
     Pseudo is Norm-conserving + core correction, Zval =  3.0
     Generated using ONCVPSP code by D. R. Hamann
     Using radial grid of 1876 points,  6 beta functions with:
                l(1) =   0
                l(2) =   0
                l(3) =   1
                l(4) =   1
                l(5) =   2
                l(6) =   2

     atomic species   valence    mass     pseudopotential
        Al             3.00    29.98200     Al( 1.00)

      2 Sym. Ops. (no inversion) found

   Cartesian axes

     site n.     atom                  positions (alat units)
         1           Al  tau(   1) = (  -0.0000000   0.1443393   0.0000000  )
         2           Al  tau(   2) = (   0.1250015   0.0721696   0.0000000  )
         3           Al  tau(   3) = (  -0.1249997   0.3608472   0.0000000  )
         4           Al  tau(   4) = (   0.0000018   0.2886775   0.0000000  )
         5           Al  tau(   5) = (  -0.2499994   0.5773550   0.0000000  )
         6           Al  tau(   6) = (  -0.1249979   0.5051854   0.0000000  )
         7           Al  tau(   7) = (  -0.3749991   0.7938629   0.0000000  )
         8           Al  tau(   8) = (  -0.2499976   0.7216932   0.0000000  )
         9           Al  tau(   9) = (   0.2500011   0.1443403   0.0000000  )
        10           Al  tau(  10) = (   0.3750027   0.0721706   0.0000000  )
        11           Al  tau(  11) = (   0.1250014   0.3608482   0.0000000  )
        12           Al  tau(  12) = (   0.2500030   0.2886785   0.0000000  )
        13           Al  tau(  13) = (   0.0000017   0.5773560   0.0000000  )
        14           Al  tau(  14) = (   0.1250033   0.5051864   0.0000000  )
        15           Al  tau(  15) = (  -0.1249980   0.7938639   0.0000000  )
        16           Al  tau(  16) = (   0.0000036   0.7216942   0.0000000  )
        17           Al  tau(  17) = (   0.5000023   0.1443413   0.0000000  )
        18           Al  tau(  18) = (   0.6250038   0.0721717   0.0000000  )
        19           Al  tau(  19) = (   0.3750026   0.3608492   0.0000000  )
        20           Al  tau(  20) = (   0.5000041   0.2886795   0.0000000  )
        21           Al  tau(  21) = (   0.2500029   0.5773571   0.0000000  )
        22           Al  tau(  22) = (   0.1250032   0.7938649   0.0000000  )
        23           Al  tau(  23) = (   0.2500047   0.7216953   0.0000000  )
        24           Al  tau(  24) = (   0.7500035   0.1443423   0.0000000  )
        25           Al  tau(  25) = (   0.8750050   0.0721727   0.0000000  )
        26           Al  tau(  26) = (   0.6250038   0.3608502   0.0000000  )
        27           Al  tau(  27) = (   0.7500053   0.2886805   0.0000000  )
        28           Al  tau(  28) = (   0.5000041   0.5773581   0.0000000  )
        29           Al  tau(  29) = (   0.6250056   0.5051884   0.0000000  )
        30           Al  tau(  30) = (   0.3750044   0.7938660   0.0000000  )
        31           Al  tau(  31) = (   0.5000059   0.7216963   0.0000000  )

     number of k points=     1  Methfessel-Paxton smearing, width (Ry)=  0.0500
                       cart. coord. in units 2pi/alat
        k(    1) = (   0.0000000   0.0000000   0.0000000), wk =   2.0000000

     Initial potential from superposition of free atoms

     starting charge   92.92414, renormalised to   93.00000

     negative rho (up, down):  9.278E-05 0.000E+00
     Starting wfcs are  124 randomized atomic wfcs

     Self-consistent Calculation

     iteration #  1     ecut=    80.00 Ry     beta= 0.40
     Davidson diagonalization with overlap
     ethr =  1.00E-02,  avg # of iterations =  2.0

     total energy              =    -140.64197794 Ry
     Harris-Foulkes estimate   =    -141.23604401 Ry
     estimated scf accuracy    <       1.54898350 Ry

[...]

     End of self-consistent calculation

          k = 0.0000 0.0000 0.0000 (448403 PWs)   bands (ev):

    -9.9530  -9.4485  -9.4329  -9.4327  -9.4261  -9.4259  -9.1458  -8.4048
    -8.4047  -8.3881  -8.3881  -8.3798  -8.3036  -8.2570  -8.2570  -7.5862
    -6.9325  -6.9324  -6.8234  -6.4865  -6.4774  -6.4773  -6.3701  -6.3700
    -5.4640  -4.8435  -4.8434  -4.8370  -4.7356  -4.7355  -4.4780  -4.4681
    -4.4429  -4.4429  -4.1225  -4.1223  -3.9779  -3.4714  -3.4688  -3.4685
    -3.4578  -3.4576  -3.4017  -3.2744  -3.2744  -3.2223  -3.2072  -2.9742
    -2.9653  -2.9652  -2.9390  -2.5198  -2.5197  -2.4496  -2.4484  -2.4314

     the Fermi energy is    -3.0910 ev

!    total energy              =    -140.93611224 Ry
     Harris-Foulkes estimate   =    -140.93611288 Ry
     estimated scf accuracy    <       0.00000091 Ry

     The total energy is the sum of the following terms:

     one-electron contribution =    -502.03737227 Ry
     hartree contribution      =     259.76438095 Ry
     xc contribution           =     -61.33584816 Ry
     ewald contribution        =     162.75371665 Ry
     smearing contrib. (-TS)   =      -0.08098940 Ry

     convergence has been achieved in  16 iterations

     Forces acting on atoms (cartesian axes, Ry/au):

     atom    1 type  1   force =     0.00045879   -0.00028567    0.00000000
     atom    2 type  1   force =     0.00198437   -0.00113500    0.00000000
     atom    3 type  1   force =    -0.00001008    0.00056127    0.00000000
     atom    4 type  1   force =    -0.00109569   -0.00063557    0.00000000
     atom    5 type  1   force =    -0.00366633   -0.00400028    0.00000000
     atom    6 type  1   force =    -0.00000503    0.00231125    0.00000000
     atom    7 type  1   force =    -0.00529162   -0.00122588    0.00000000
     atom    8 type  1   force =     0.00186328    0.00109859    0.00000000
     atom    9 type  1   force =    -0.00158374    0.00520699    0.00000000
     atom   10 type  1   force =    -0.00000623   -0.00213018    0.00000000
     atom   11 type  1   force =     0.00109464    0.00064523    0.00000000
     atom   12 type  1   force =    -0.00320535   -0.00115311    0.00000000
     atom   13 type  1   force =     0.00369888   -0.00397782    0.00000000
     atom   14 type  1   force =    -0.00256711   -0.00221226    0.00000000
     atom   15 type  1   force =     0.00001502   -0.00001679    0.00000000
     atom   16 type  1   force =    -0.00186535    0.00107319    0.00000000
     atom   17 type  1   force =     0.00161989    0.00516708    0.00000000
     atom   18 type  1   force =    -0.00205731   -0.00115645    0.00000000
     atom   19 type  1   force =     0.00003250    0.01516316    0.00000000
     atom   20 type  1   force =     0.00317935   -0.00109809    0.00000000
     atom   21 type  1   force =     0.01311373   -0.00757692    0.00000000
     atom   22 type  1   force =     0.00527336   -0.00121064    0.00000000
     atom   23 type  1   force =     0.00064133    0.00330384    0.00000000
     atom   24 type  1   force =    -0.00046118   -0.00025314    0.00000000
     atom   25 type  1   force =     0.00003812    0.00132563    0.00000000
     atom   26 type  1   force =    -0.00114489    0.00064168    0.00000000
     atom   27 type  1   force =     0.00115085   -0.00064101    0.00000000
     atom   28 type  1   force =    -0.01309380   -0.00759180    0.00000000
     atom   29 type  1   force =     0.00253012   -0.00220317    0.00000000
     atom   30 type  1   force =    -0.00002206   -0.00130630    0.00000000
     atom   31 type  1   force =    -0.00061849    0.00331217    0.00000000

     Total force =     0.031215     Total SCF correction =     0.000709

     Computing stress (Cartesian axis) and pressure

          total   stress  (Ry/bohr**3)                   (kbar)     P=   -0.57
  -0.00000578  -0.00000001   0.00000000         -0.85     -0.00      0.00
  -0.00000001  -0.00000577   0.00000000         -0.00     -0.85      0.00
   0.00000000   0.00000000   0.00000001          0.00      0.00      0.00

     BFGS Geometry Optimization

     number of scf cycles    =   1
     number of bfgs steps    =   0

     enthalpy new            =    -140.9361122358 Ry

     new trust radius        =       0.0151631924 bohr
     new conv_thr            =       0.0000010000 Ry

     new unit-cell volume =  37119.58722 a.u.^3 (  5500.55525 Ang^3 )
     density =      0.28059 g/cm^3

CELL_PARAMETERS (alat= 33.68096681)
   0.999855394  -0.000000266   0.000000000
  -0.499927927   0.865900613   0.000000000
   0.000000000   0.000000000   1.122132950

ATOMIC_POSITIONS (angstrom)
Al       0.000241478   2.572065628   0.000000000
Al       2.228654161   1.285506762   0.000000000
Al      -2.227580101   6.430820802   0.000000000
Al      -0.000549000   5.144078066   0.000000000
Al      -4.457088126  10.286714344   0.000000000
Al      -2.227545435   9.003944290   0.000000000
Al      -6.685521570  14.146489341   0.000000000
Al      -4.454130412  12.861609731   0.000000000
Al       4.454337230   2.574988812   0.000000000
Al       6.682777391   1.284997222   0.000000000
Al       2.228180867   6.430882240   0.000000000
Al       4.453511237   5.143821248   0.000000000
Al       0.001985270  10.286743235   0.000000000
Al       2.226275430   9.001567907   0.000000000
Al      -2.227537365  14.147146080   0.000000000
Al      -0.000926773  12.861613299   0.000000000
Al       8.911208736   2.574984704   0.000000000
Al      11.136868625   1.285529434   0.000000000
[...]
     new conv_thr            =       0.0000010000 Ry

[...]

     iteration #  3     ecut=    80.00 Ry     beta= 0.40
     Davidson diagonalization with overlap
     c_bands:  1 eigenvalues not converged
     ethr =  8.84E-07,  avg # of iterations = 20.0

[...]

     Writing output data file 22al_planar_2x2_vcr.save/
     NEW-OLD atomic charge density approx. for the potential

[...]

     Writing output data file 22al_planar_2x2_vcr.save/
     NEW-OLD atomic charge density approx. for the potential
     Check: negative starting charge=   -0.000121

[...]

     Writing output data file 22al_planar_2x2_vcr.save/
     Check: negative starting charge=   -0.000121
     NEW-OLD atomic charge density approx. for the potential
     Check: negative starting charge=   -0.000133

[...]

     WARNING: bfgs curvature condition failed, Theta= 0.916
     new trust radius        =       0.0497186444 bohr
     new conv_thr            =       0.0000010000 Ry

[...]

     CASE: enthalpy_new > enthalpy_old

[...]

     Total force =     0.000661     Total SCF correction =     0.000089
     SCF correction compared to forces is large: reduce conv_thr to get better values

[...]

     Total force =     0.000522     Total SCF correction =     0.000050

[...]

     Writing output data file 22al_planar_2x2_vcr.save/
     Check: negative starting charge=   -0.000131
     NEW-OLD atomic charge density approx. for the potential
     Check: negative starting charge=   -0.000131
     extrapolated charge   93.00007, renormalised to   93.00000

[...]

     negative rho (up, down):  1.668E-08 0.000E+00
     extrapolated charge   92.99993, renormalised to   93.00000

[...]

     Writing output data file 22al_planar_2x2_vcr.save/
     Check: negative starting charge=   -0.000131
     NEW-OLD atomic charge density approx. for the potential
     Check: negative starting charge=   -0.000131
     extrapolated charge   92.99999, renormalised to   93.00000

[...]

     CASE: enthalpy_new > enthalpy_old

     new trust radius        =       0.0000414713 bohr

     trust_radius < trust_radius_min

     resetting bfgs history

     new conv_thr            =       0.0000000100 Ry

[...]

     number of scf cycles    = 251
     number of bfgs steps    = 247

     enthalpy old            =    -142.0902674426 Ry
     enthalpy new            =    -142.0902674458 Ry

     CASE: enthalpy_new < enthalpy_old

     Message from routine bfgs:
     history already reset at previous step: stopping
     small trust_radius: resetting bfgs history

     new trust radius        =       0.0000178231 bohr
     new conv_thr            =       0.0000000100 Ry

     new unit-cell volume =  26631.59606 a.u.^3 (  3946.39533 Ang^3 )
     density =      0.39108 g/cm^3

[...]

ATOMIC_POSITIONS (angstrom)
Al       1.813222457   1.486493533   0.000000000
Al       4.025267251   0.206631133   0.000000000
Al      -2.580494183   6.759237020   0.000000000
Al      -0.398179774   2.762474628   0.000000000
Al      -4.909312679   8.088809946   0.000000000
Al      -2.099841047   9.369681443   0.000000000
Al      -6.281112130  11.889202156   0.000000000
Al      -4.182717373  10.639956980   0.000000000
Al       4.102849430   2.899502009   0.000000000
Al       6.326395077   1.615087040   0.000000000
Al      -0.324840082   5.457615275   0.000000000
Al       1.894508731   4.175046469   0.000000000
Al      -0.020088918   8.095265201   0.000000000
Al       2.072983138   6.838511822   0.000000000
Al      -1.684786102  11.990937396   0.000000000
Al       0.614132607  10.672299854   0.000000000
Al       8.444070829   3.215171586   0.000000000
Al       8.588011007   0.304792167   0.000000000
Al       4.186488096   5.610547437   0.000000000
Al       6.308223435   4.397260782   0.000000000
Al       3.016944945   9.311969907   0.000000000
Al       2.966853428  12.019624900   0.000000000
Al       5.405740928  10.578140510   0.000000000
Al      10.587312612   2.050653831   0.000000000
Al      12.726781812   0.877261263   0.000000000
Al      10.388698104   5.021414984   0.000000000
Al      12.669183407   3.696366940   0.000000000
Al       5.544890798   7.880214966   0.000000000
Al       8.027687020   6.412031152   0.000000000
Al       6.905220577  12.757107756   0.000000000
Al       7.947489894   9.115855184   0.000000000

     Writing output data file 22al_planar_2x2_vcr.save/
     Check: negative starting charge=   -0.000131
     NEW-OLD atomic charge density approx. for the potential
     Check: negative starting charge=   -0.000131

[...]

     Threshold (ethr) on eigenvalues was too large:
     Diagonalizing with lowered threshold

     Davidson diagonalization with overlap
     ethr =  5.36E-11,  avg # of iterations =  5.0

[...]

     bfgs converged in 252 scf cycles and 248 bfgs steps
     (criteria: energy <  1.0E-05 Ry, force <  1.0E-04Ry/Bohr, cell <  5.0E-05kbar)

     End of BFGS Geometry Optimization

     Final enthalpy =    -142.0902674462 Ry
Begin final coordinates
     new unit-cell volume =  26631.59606 a.u.^3 (  3946.39533 Ang^3 )
     density =      0.39108 g/cm^3

CELL_PARAMETERS (alat= 33.68096681)
   0.858550608  -0.019946901   0.000000000
  -0.446010459   0.733853592   0.000000000
   0.000000000   0.000000000   1.122132950

ATOMIC_POSITIONS (angstrom)
Al       1.813222457   1.486493533   0.000000000
Al       4.025267251   0.206631133   0.000000000
Al      -2.580494183   6.759237020   0.000000000
Al      -0.398179774   2.762474628   0.000000000
Al      -4.909312679   8.088809946   0.000000000
Al      -2.099841047   9.369681443   0.000000000
Al      -6.281112130  11.889202156   0.000000000
Al      -4.182717373  10.639956980   0.000000000
Al       4.102849430   2.899502009   0.000000000
Al       6.326395077   1.615087040   0.000000000
Al      -0.324840082   5.457615275   0.000000000
Al       1.894508731   4.175046469   0.000000000
Al      -0.020088918   8.095265201   0.000000000
Al       2.072983138   6.838511822   0.000000000
Al      -1.684786102  11.990937396   0.000000000
Al       0.614132607  10.672299854   0.000000000
Al       8.444070829   3.215171586   0.000000000
Al       8.588011007   0.304792167   0.000000000
Al       4.186488096   5.610547437   0.000000000
Al       6.308223435   4.397260782   0.000000000
Al       3.016944945   9.311969907   0.000000000
Al       2.966853428  12.019624900   0.000000000
Al       5.405740928  10.578140510   0.000000000
Al      10.587312612   2.050653831   0.000000000
Al      12.726781812   0.877261263   0.000000000
Al      10.388698104   5.021414984   0.000000000
Al      12.669183407   3.696366940   0.000000000
Al       5.544890798   7.880214966   0.000000000
Al       8.027687020   6.412031152   0.000000000
Al       6.905220577  12.757107756   0.000000000
Al       7.947489894   9.115855184   0.000000000
End final coordinates

     Writing output data file 22al_planar_2x2_vcr.save/

     A final scf calculation at the relaxed structure.
     The G-vectors are recalculated for the final unit cell
     Results may differ from those at the preceding step.

     bravais-lattice index     =            4
     lattice parameter (alat)  =      33.6810  a.u.
     unit-cell volume          =   26631.5961 (a.u.)^3
     number of atoms/cell      =           31
     number of atomic types    =            1
     number of electrons       =        93.00
     number of Kohn-Sham states=           56
     kinetic-energy cutoff     =      80.0000  Ry
     charge density cutoff     =     320.0000  Ry
     convergence threshold     =      1.0E-08
     mixing beta               =       0.4000
     number of iterations used =            8  plain     mixing
     Exchange-correlation      = PBE ( 1  4  3  4 0 0)

     celldm(1)=  33.680967  celldm(2)=   0.000000  celldm(3)=   1.122133
     celldm(4)=   0.000000  celldm(5)=   0.000000  celldm(6)=   0.000000

     crystal axes: (cart. coord. in units of alat)
               a(1) = (   0.858551  -0.019947   0.000000 )
               a(2) = (  -0.446010   0.733854   0.000000 )
               a(3) = (   0.000000   0.000000   1.122133 )

     reciprocal axes: (cart. coord. in units 2 pi/alat)
               b(1) = (  1.181436  0.718035  0.000000 )
               b(2) = (  0.032113  1.382187  0.000000 )
               b(3) = (  0.000000  0.000000  0.891160 )

     PseudoPot. # 1 for Al read from file:
     ./Al.upf
     MD5 check sum: 4974d48a734c9d7d1eb6780a1419d19d
     Pseudo is Norm-conserving + core correction, Zval =  3.0
     Generated using ONCVPSP code by D. R. Hamann
     Using radial grid of 1876 points,  6 beta functions with:
                l(1) =   0
                l(2) =   0
                l(3) =   1
                l(4) =   1
                l(5) =   2
                l(6) =   2

     atomic species   valence    mass     pseudopotential
        Al             3.00    29.98200     Al( 1.00)

      2 Sym. Ops. (no inversion) found

   Cartesian axes

     site n.     atom                  positions (alat units)
         1           Al  tau(   1) = (   0.1017338   0.0834022   0.0000000  )
         2           Al  tau(   2) = (   0.2258443   0.0115934   0.0000000  )
         3           Al  tau(   3) = (  -0.1447829   0.3792381   0.0000000  )
         4           Al  tau(   4) = (  -0.0223405   0.1549932   0.0000000  )
         5           Al  tau(   5) = (  -0.2754451   0.4538360   0.0000000  )
         6           Al  tau(   6) = (  -0.1178150   0.5257014   0.0000000  )
         7           Al  tau(   7) = (  -0.3524121   0.6670633   0.0000000  )
         8           Al  tau(   8) = (  -0.2346782   0.5969723   0.0000000  )
         9           Al  tau(   9) = (   0.2301971   0.1626813   0.0000000  )
        10           Al  tau(  10) = (   0.3549528   0.0906171   0.0000000  )
        11           Al  tau(  11) = (  -0.0182257   0.3062085   0.0000000  )
        12           Al  tau(  12) = (   0.1062945   0.2342479   0.0000000  )
        13           Al  tau(  13) = (  -0.0011271   0.4541982   0.0000000  )
        14           Al  tau(  14) = (   0.1163081   0.3836860   0.0000000  )
        15           Al  tau(  15) = (  -0.0945277   0.6727713   0.0000000  )
        16           Al  tau(  16) = (   0.0344569   0.5987870   0.0000000  )
        17           Al  tau(  17) = (   0.4737685   0.1803925   0.0000000  )
        18           Al  tau(  18) = (   0.4818445   0.0171009   0.0000000  )
        19           Al  tau(  19) = (   0.2348898   0.3147890   0.0000000  )
        20           Al  tau(  20) = (   0.3539333   0.2467156   0.0000000  )
        21           Al  tau(  21) = (   0.1692707   0.5224634   0.0000000  )
        22           Al  tau(  22) = (   0.1664602   0.6743809   0.0000000  )
        23           Al  tau(  23) = (   0.3032980   0.5935040   0.0000000  )
        24           Al  tau(  24) = (   0.5940186   0.1150553   0.0000000  )
        25           Al  tau(  25) = (   0.7140571   0.0492202   0.0000000  )
        26           Al  tau(  26) = (   0.5828750   0.2817348   0.0000000  )
        27           Al  tau(  27) = (   0.7108254   0.2073908   0.0000000  )
        28           Al  tau(  28) = (   0.3111052   0.4421324   0.0000000  )
        29           Al  tau(  29) = (   0.4504066   0.3597576   0.0000000  )
        30           Al  tau(  30) = (   0.3874288   0.7157585   0.0000000  )
        31           Al  tau(  31) = (   0.4459070   0.5114601   0.0000000  )

     number of k points=     1  Methfessel-Paxton smearing, width (Ry)=  0.0500
                       cart. coord. in units 2pi/alat
        k(    1) = (   0.0000000   0.0000000   0.0000000), wk =   2.0000000

     Initial potential from superposition of free atoms

     starting charge   92.92414, renormalised to   93.00000

     negative rho (up, down):  7.235E-05 0.000E+00
     Starting wfcs are  124 randomized atomic wfcs

     Self-consistent Calculation

     iteration #  1     ecut=    80.00 Ry     beta= 0.40
     Davidson diagonalization with overlap
     c_bands:  2 eigenvalues not converged
     ethr =  1.00E-06,  avg # of iterations = 20.0

[...]

     negative rho (up, down):  1.276E-08 0.000E+00

[...]

     total energy              =    -142.09000489 Ry
     Harris-Foulkes estimate   =    -142.09000490 Ry
     estimated scf accuracy    <       0.00000002 Ry

     iteration # 18     ecut=    80.00 Ry     beta= 0.40
     Davidson diagonalization with overlap
     ethr =  1.58E-11,  avg # of iterations =  4.0

     End of self-consistent calculation

          k = 0.0000 0.0000 0.0000 (321809 PWs)   bands (ev):

   -11.6185 -10.9195 -10.8741 -10.7215 -10.7011 -10.4628 -10.3217  -9.1360
    -9.1350  -9.0537  -9.0521  -9.0082  -8.5664  -8.2622  -8.2610  -8.2166
    -8.2103  -7.7558  -7.7292  -6.2019  -6.2015  -6.0334  -6.0330  -5.8456
    -5.8452  -5.6703  -5.5742  -5.4001  -5.3994  -5.0333  -4.9256  -4.8656
    -4.4002  -4.3995  -4.1617  -4.1400  -4.1388  -4.1355  -4.0251  -3.9937
    -3.8693  -3.7868  -3.6045  -3.6026  -2.4561  -2.4550  -2.4072  -2.4059
    -2.3714  -2.0117  -1.9372  -1.9363  -1.7014  -1.7010  -1.6753  -1.6745

     the Fermi energy is    -2.4299 ev

!    total energy              =    -142.09000488 Ry
     Harris-Foulkes estimate   =    -142.09000489 Ry
     estimated scf accuracy    <          3.5E-09 Ry

     The total energy is the sum of the following terms:

     one-electron contribution =    -689.31857181 Ry
     hartree contribution      =     353.47152602 Ry
     xc contribution           =     -63.69370780 Ry
     ewald contribution        =     257.48585845 Ry
     smearing contrib. (-TS)   =      -0.03510973 Ry

     convergence has been achieved in  18 iterations

     Forces acting on atoms (cartesian axes, Ry/au):

     atom    1 type  1   force =    -0.00000234    0.00000058    0.00000000
     atom    2 type  1   force =     0.00000708    0.00000369    0.00000000
     atom    3 type  1   force =    -0.00000238   -0.00000106    0.00000000
     atom    4 type  1   force =     0.00000107   -0.00000244    0.00000000
     atom    5 type  1   force =    -0.00000033    0.00000008    0.00000000
     atom    6 type  1   force =    -0.00000474   -0.00000853    0.00000000
     atom    7 type  1   force =     0.00000188    0.00000144    0.00000000
     atom    8 type  1   force =    -0.00000705    0.00000078    0.00000000
     atom    9 type  1   force =    -0.00000102    0.00000309    0.00000000
     atom   10 type  1   force =    -0.00000967    0.00000099    0.00000000
     atom   11 type  1   force =     0.00000742   -0.00000079    0.00000000
     atom   12 type  1   force =     0.00000073    0.00000287    0.00000000
     atom   13 type  1   force =     0.00000609    0.00001362    0.00000000
     atom   14 type  1   force =    -0.00000099   -0.00000503    0.00000000
     atom   15 type  1   force =    -0.00000390    0.00000802    0.00000000
     atom   16 type  1   force =     0.00000457   -0.00000360    0.00000000
     atom   17 type  1   force =    -0.00000116    0.00000609    0.00000000
     atom   18 type  1   force =    -0.00000289   -0.00000885    0.00000000
     atom   19 type  1   force =     0.00000179   -0.00000607    0.00000000
     atom   20 type  1   force =    -0.00000235   -0.00000707    0.00000000
     atom   21 type  1   force =    -0.00000030    0.00000872    0.00000000
     atom   22 type  1   force =    -0.00000069    0.00000143    0.00000000
     atom   23 type  1   force =    -0.00001192   -0.00000135    0.00000000
     atom   24 type  1   force =    -0.00000723   -0.00000645    0.00000000
     atom   25 type  1   force =    -0.00000062   -0.00001315    0.00000000
     atom   26 type  1   force =     0.00000540    0.00001414    0.00000000
     atom   27 type  1   force =     0.00000250    0.00000253    0.00000000
     atom   28 type  1   force =     0.00000992   -0.00000203    0.00000000
     atom   29 type  1   force =    -0.00000025    0.00000120    0.00000000
     atom   30 type  1   force =     0.00000331   -0.00000132    0.00000000
     atom   31 type  1   force =     0.00000806   -0.00000154    0.00000000

     Total force =     0.000044     Total SCF correction =     0.000061
     SCF correction compared to forces is large: reduce conv_thr to get better values

     Computing stress (Cartesian axis) and pressure

          total   stress  (Ry/bohr**3)                   (kbar)     P=    0.00
   0.00000003  -0.00000000   0.00000000          0.00     -0.00      0.00
  -0.00000000   0.00000004   0.00000000         -0.00      0.01      0.00
   0.00000000   0.00000000  -0.00000001          0.00      0.00     -0.00

     Writing output data file 22al_planar_2x2_vcr.save/

     General routines

     Parallel routines

      58h

   This run was terminated on:   5:34:50  27Nov2020

   JOB DONE.