     Program PWSCF v.6.3MaX starts on 25Nov2020 at 12:59:55

     R & G space division:  proc/nbgrp/npool/nimage =       8
     Waiting for input...
     Reading input from standard input

     Current dimensions of program PWSCF are:
     Max number of different atomic species (ntypx) = 10
     Max number of k-points (npk) =  40000
     Max angular momentum in pseudopotentials (lmaxx) =  3

     Subspace diagonalization in iterative solution of the eigenvalue problem:
     a serial algorithm will be used

     bravais-lattice index     =            4
     lattice parameter (alat)  =      25.2607  a.u.
     unit-cell volume          =   20885.8003 (a.u.)^3
     number of atoms/cell      =           17
     number of atomic types    =            1
     number of electrons       =        51.00
     number of Kohn-Sham states=           31
     kinetic-energy cutoff     =      80.0000  Ry
     charge density cutoff     =     320.0000  Ry
     convergence threshold     =      1.0E-06
     mixing beta               =       0.4000
     number of iterations used =            8  plain     mixing
     Exchange-correlation      = PBE ( 1  4  3  4 0 0)
     nstep                     =          300

     celldm(1)=  25.260725  celldm(2)=   0.000000  celldm(3)=   1.496177
     celldm(4)=   0.000000  celldm(5)=   0.000000  celldm(6)=   0.000000

     crystal axes: (cart. coord. in units of alat)
               a(1) = (   1.000000   0.000000   0.000000 )
               a(2) = (  -0.500000   0.866025   0.000000 )
               a(3) = (   0.000000   0.000000   1.496177 )

     reciprocal axes: (cart. coord. in units 2 pi/alat)
               b(1) = (  1.000000  0.577350  0.000000 )
               b(2) = (  0.000000  1.154701  0.000000 )
               b(3) = (  0.000000  0.000000  0.668370 )

     PseudoPot. # 1 for Al read from file:
     ./Al.upf
     MD5 check sum: 4974d48a734c9d7d1eb6780a1419d19d
     Pseudo is Norm-conserving + core correction, Zval =  3.0
     Generated using ONCVPSP code by D. R. Hamann
     Using radial grid of 1876 points,  6 beta functions with:
                l(1) =   0
                l(2) =   0
                l(3) =   1
                l(4) =   1
                l(5) =   2
                l(6) =   2

     atomic species   valence    mass     pseudopotential
        Al             3.00    29.98200     Al( 1.00)

      4 Sym. Ops. (no inversion) found ( 2 have fractional translation)

   Cartesian axes

     site n.     atom                  positions (alat units)
         1           Al  tau(   1) = (   0.0000000   0.1924524   0.0000000  )
         2           Al  tau(   2) = (   0.1666687   0.0962261   0.0000000  )
         3           Al  tau(   3) = (   0.5000036   0.0962275   0.0000000  )
         4           Al  tau(   4) = (  -0.1666663   0.4811295   0.0000000  )
         5           Al  tau(   5) = (   0.0000024   0.3849033   0.0000000  )
         6           Al  tau(   6) = (   0.1666686   0.4811309   0.0000000  )
         7           Al  tau(   7) = (   0.3333373   0.3849047   0.0000000  )
         8           Al  tau(   8) = (  -0.3333326   0.7698067   0.0000000  )
         9           Al  tau(   9) = (  -0.1666639   0.6735805   0.0000000  )
        10           Al  tau(  10) = (   0.0000023   0.7698081   0.0000000  )
        11           Al  tau(  11) = (   0.1666710   0.6735818   0.0000000  )
        12           Al  tau(  12) = (   0.6666697   0.1924551   0.0000000  )
        13           Al  tau(  13) = (   0.8333384   0.0962289   0.0000000  )
        14           Al  tau(  14) = (   0.5000035   0.4811323   0.0000000  )
        15           Al  tau(  15) = (   0.6666722   0.3849060   0.0000000  )
        16           Al  tau(  16) = (   0.3333372   0.7698094   0.0000000  )
        17           Al  tau(  17) = (   0.5000059   0.6735832   0.0000000  )

     number of k points=     1  Methfessel-Paxton smearing, width (Ry)=  0.0500
                       cart. coord. in units 2pi/alat
        k(    1) = (   0.0000000   0.0000000   0.0000000), wk =   2.0000000

     Initial potential from superposition of free atoms

     starting charge   50.95840, renormalised to   51.00000

     negative rho (up, down):  5.196E-05 0.000E+00
     Starting wfcs are   68 randomized atomic wfcs

     Self-consistent Calculation

     iteration #  1     ecut=    80.00 Ry     beta= 0.40
     Davidson diagonalization with overlap
     ethr =  1.00E-02,  avg # of iterations =  2.0

     total energy              =     -77.03483844 Ry
     Harris-Foulkes estimate   =     -77.31743944 Ry
     estimated scf accuracy    <       0.79242794 Ry

[...]

     negative rho (up, down):  1.760E-07 0.000E+00

[...]

     End of self-consistent calculation

          k = 0.0000 0.0000 0.0000 (252395 PWs)   bands (ev):

    -9.9964  -9.1543  -9.0981  -9.0978  -9.0599  -9.0595  -8.4087  -7.5382
    -7.4673  -7.4672  -6.7263  -5.8849  -5.8792  -5.8790  -5.6093  -5.6092
    -4.7520  -4.7519  -4.0025  -3.5338  -3.3088  -3.2899  -3.2897  -3.2355
    -3.1475  -3.1134  -3.1132  -3.0990  -3.0988  -2.7511  -2.7510

     the Fermi energy is    -3.1135 ev

!    total energy              =     -77.16211621 Ry
     Harris-Foulkes estimate   =     -77.16211628 Ry
     estimated scf accuracy    <       0.00000009 Ry

     The total energy is the sum of the following terms:

     one-electron contribution =    -269.13884660 Ry
     hartree contribution      =     139.26290804 Ry
     xc contribution           =     -33.51701070 Ry
     ewald contribution        =      86.35205215 Ry
     smearing contrib. (-TS)   =      -0.12121910 Ry

     convergence has been achieved in  14 iterations

[...]

     Forces acting on atoms (cartesian axes, Ry/au):

     atom    1 type  1   force =    -0.00401114   -0.00306807    0.00000000
     atom    2 type  1   force =     0.01928539    0.01113442    0.00000000
     atom    3 type  1   force =    -0.01928980    0.01113637    0.00000000
     atom    4 type  1   force =     0.00000237    0.00000137    0.00000000
     atom    5 type  1   force =    -0.00061186    0.00035122    0.00000000
     atom    6 type  1   force =     0.00064615    0.00502718    0.00000000
     atom    7 type  1   force =    -0.00000052   -0.02227364    0.00000000
     atom    8 type  1   force =    -0.00466260   -0.00193971    0.00000000
     atom    9 type  1   force =    -0.00000176   -0.00070549    0.00000000
     atom   10 type  1   force =     0.00467674   -0.00195401    0.00000000
     atom   11 type  1   force =    -0.00822746   -0.00475013    0.00000000
     atom   12 type  1   force =     0.00402763   -0.00306345    0.00000000
     atom   13 type  1   force =    -0.00000919    0.00950490    0.00000000
     atom   14 type  1   force =    -0.00063922    0.00501976    0.00000000
     atom   15 type  1   force =     0.00059965    0.00034621    0.00000000
     atom   16 type  1   force =    -0.00001127   -0.00000651    0.00000000
     atom   17 type  1   force =     0.00822689   -0.00476041    0.00000000

     Total force =     0.043751     Total SCF correction =     0.000200

     Computing stress (Cartesian axis) and pressure

     negative rho (up, down):  4.701E-05 0.000E+00
          total   stress  (Ry/bohr**3)                   (kbar)     P=   -0.80
  -0.00000820   0.00000001   0.00000000         -1.21      0.00      0.00
   0.00000001  -0.00000821   0.00000000          0.00     -1.21      0.00
   0.00000000   0.00000000   0.00000001          0.00      0.00      0.00

     BFGS Geometry Optimization

     number of scf cycles    =   1
     number of bfgs steps    =   0

     enthalpy new            =     -77.1621162063 Ry

     new trust radius        =       0.0222736363 bohr
     new conv_thr            =       0.0000010000 Ry

     new unit-cell volume =  20877.23391 a.u.^3 (  3093.68684 Ang^3 )
     density =      0.27358 g/cm^3

CELL_PARAMETERS (alat= 25.26072511)
   0.999794993   0.000000159   0.000000000
  -0.499897359   0.865847624   0.000000000
   0.000000000   0.000000000   1.496177267

ATOMIC_POSITIONS (angstrom)
Al      -0.002121172   2.570436777   0.000000000
Al       2.237673502   1.291920723   0.000000000
Al       6.672171903   1.291940650   0.000000000
Al      -2.227436214   6.430131669   0.000000000
Al      -0.000290801   5.144286611   0.000000000
Al       2.227811713   6.432809569   0.000000000
Al       4.454939958   5.132335413   0.000000000
Al      -4.457341598  10.287175648   0.000000000
Al      -2.227405315   9.001798484   0.000000000
Al       0.002506877  10.287186989   0.000000000
Al       2.223150051   8.999677497   0.000000000
Al       8.911945364   2.570477026   0.000000000
Al      11.137279991   1.291096397   0.000000000
Al       6.682038990   6.432824544   0.000000000
Al       8.910164814   5.144321764   0.000000000
Al       4.454933922  10.288236251   0.000000000
Al       6.686762856   8.999690959   0.000000000

     Writing output data file 3al_planar_2x2_vcr.save/
     NEW-OLD atomic charge density approx. for the potential

     negative rho (up, down):  4.702E-05 0.000E+00
     extrapolated charge   50.97909, renormalised to   51.00000

[...]

     enthalpy old            =     -77.1621162063 Ry
     enthalpy new            =     -77.1640577210 Ry

     CASE: enthalpy_new < enthalpy_old

     WARNING: bfgs curvature condition failed, Theta= 0.837
     new trust radius        =       0.0334035990 bohr
     new conv_thr            =       0.0000010000 Ry

[...]

     iteration # 19     ecut=    80.00 Ry     beta= 0.40
     Davidson diagonalization with overlap
     c_bands:  1 eigenvalues not converged
     ethr =  2.57E-08,  avg # of iterations = 20.0

[...]

     CASE: enthalpy_new > enthalpy_old

[...]

     Threshold (ethr) on eigenvalues was too large:
     Diagonalizing with lowered threshold

     Davidson diagonalization with overlap
     ethr =  3.65E-08,  avg # of iterations =  6.0

[...]

     WARNING: bfgs curvature condition failed, Theta= 0.968
     new trust radius        =       0.6541106604 bohr
     new conv_thr            =       0.0000010000 Ry

[...]

     iteration #  1     ecut=    80.00 Ry     beta= 0.40
     Davidson diagonalization with overlap
     c_bands:  2 eigenvalues not converged
     ethr =  1.00E-06,  avg # of iterations = 20.0

[...]

     CASE: enthalpy_new > enthalpy_old

[...]

     Total force =     0.004730     Total SCF correction =     0.000510
     SCF correction compared to forces is large: reduce conv_thr to get better values

[...]

     Total force =     0.000892     Total SCF correction =     0.000019

[...]

     small trust_radius: resetting bfgs history

[...]

     number of scf cycles    = 180
     number of bfgs steps    = 177

     enthalpy old            =     -78.0410752955 Ry
     enthalpy new            =     -78.0410752963 Ry

     CASE: enthalpy_new < enthalpy_old

     Message from routine bfgs:
     history already reset at previous step: stopping
     small trust_radius: resetting bfgs history

     new trust radius        =       0.0000080867 bohr
     new conv_thr            =       0.0000000100 Ry

     new unit-cell volume =  15267.67696 a.u.^3 (  2262.43628 Ang^3 )
     density =      0.37410 g/cm^3

[...]

ATOMIC_POSITIONS (angstrom)
Al      -0.023595940   1.464280513   0.000000000
Al       2.571757216   1.484804816   0.000000000
Al       4.807569991  -0.048904161   0.000000000
Al      -3.111915259   6.912767050   0.000000000
Al      -0.620123654   3.919828611   0.000000000
Al       0.583867853   6.177053880   0.000000000
Al       2.361424679   4.187966722   0.000000000
Al      -6.286264497  12.311585804   0.000000000
Al      -4.457951280  10.567164060   0.000000000
Al      -1.901179606  10.481301264   0.000000000
Al      -0.923775957   8.176088955   0.000000000
Al       7.053706984   1.542308343   0.000000000
Al       7.637680595  -0.949050005   0.000000000
Al       4.862486165   5.337635820   0.000000000
Al       4.773911739   2.756267573   0.000000000
Al       1.296329535   9.457911170   0.000000000
Al       2.996921102   7.089027133   0.000000000

     Writing output data file 3al_planar_2x2_vcr.save/
     NEW-OLD atomic charge density approx. for the potential

     negative rho (up, down):  5.557E-06 0.000E+00
     extrapolated charge   50.99999, renormalised to   51.00000

[...]

     Threshold (ethr) on eigenvalues was too large:
     Diagonalizing with lowered threshold

     Davidson diagonalization with overlap
     ethr =  2.10E-11,  avg # of iterations =  3.0

[...]

     bfgs converged in 181 scf cycles and 178 bfgs steps
     (criteria: energy <  1.0E-05 Ry, force <  1.0E-04Ry/Bohr, cell <  5.0E-05kbar)

     End of BFGS Geometry Optimization

     Final enthalpy =     -78.0410752967 Ry
Begin final coordinates
     new unit-cell volume =  15267.67696 a.u.^3 (  2262.43628 Ang^3 )
     density =      0.37410 g/cm^3

CELL_PARAMETERS (alat= 25.26072511)
   0.767952407  -0.208160527   0.000000000
  -0.564248572   0.977307122   0.000000000
   0.000000000   0.000000000   1.496177267

ATOMIC_POSITIONS (angstrom)
Al      -0.023595940   1.464280513   0.000000000
Al       2.571757216   1.484804816   0.000000000
Al       4.807569991  -0.048904161   0.000000000
Al      -3.111915259   6.912767050   0.000000000
Al      -0.620123654   3.919828611   0.000000000
Al       0.583867853   6.177053880   0.000000000
Al       2.361424679   4.187966722   0.000000000
Al      -6.286264497  12.311585804   0.000000000
Al      -4.457951280  10.567164060   0.000000000
Al      -1.901179606  10.481301264   0.000000000
Al      -0.923775957   8.176088955   0.000000000
Al       7.053706984   1.542308343   0.000000000
Al       7.637680595  -0.949050005   0.000000000
Al       4.862486165   5.337635820   0.000000000
Al       4.773911739   2.756267573   0.000000000
Al       1.296329535   9.457911170   0.000000000
Al       2.996921102   7.089027133   0.000000000
End final coordinates

     Writing output data file 3al_planar_2x2_vcr.save/

     A final scf calculation at the relaxed structure.
     The G-vectors are recalculated for the final unit cell
     Results may differ from those at the preceding step.

     bravais-lattice index     =            4
     lattice parameter (alat)  =      25.2607  a.u.
     unit-cell volume          =   15267.6770 (a.u.)^3
     number of atoms/cell      =           17
     number of atomic types    =            1
     number of electrons       =        51.00
     number of Kohn-Sham states=           31
     kinetic-energy cutoff     =      80.0000  Ry
     charge density cutoff     =     320.0000  Ry
     convergence threshold     =      1.0E-08
     mixing beta               =       0.4000
     number of iterations used =            8  plain     mixing
     Exchange-correlation      = PBE ( 1  4  3  4 0 0)

     celldm(1)=  25.260725  celldm(2)=   0.000000  celldm(3)=   1.496177
     celldm(4)=   0.000000  celldm(5)=   0.000000  celldm(6)=   0.000000

     crystal axes: (cart. coord. in units of alat)
               a(1) = (   0.767952  -0.208161   0.000000 )
               a(2) = (  -0.564249   0.977307   0.000000 )
               a(3) = (   0.000000   0.000000   1.496177 )

     reciprocal axes: (cart. coord. in units 2 pi/alat)
               b(1) = (  1.543756  0.891288  0.000000 )
               b(2) = (  0.328811  1.213059  0.000000 )
               b(3) = (  0.000000  0.000000  0.668370 )

     PseudoPot. # 1 for Al read from file:
     ./Al.upf
     MD5 check sum: 4974d48a734c9d7d1eb6780a1419d19d
     Pseudo is Norm-conserving + core correction, Zval =  3.0
     Generated using ONCVPSP code by D. R. Hamann
     Using radial grid of 1876 points,  6 beta functions with:
                l(1) =   0
                l(2) =   0
                l(3) =   1
                l(4) =   1
                l(5) =   2
                l(6) =   2

     atomic species   valence    mass     pseudopotential
        Al             3.00    29.98200     Al( 1.00)

      4 Sym. Ops. (no inversion) found ( 2 have fractional translation)

   Cartesian axes

     site n.     atom                  positions (alat units)
         1           Al  tau(   1) = (  -0.0017652   0.1095412   0.0000000  )
         2           Al  tau(   2) = (   0.1923902   0.1110766   0.0000000  )
         3           Al  tau(   3) = (   0.3596488  -0.0036585   0.0000000  )
         4           Al  tau(   4) = (  -0.2327988   0.5171362   0.0000000  )
         5           Al  tau(   5) = (  -0.0463907   0.2932379   0.0000000  )
         6           Al  tau(   6) = (   0.0436785   0.4620984   0.0000000  )
         7           Al  tau(   7) = (   0.1766555   0.3132970   0.0000000  )
         8           Al  tau(   8) = (  -0.4702683   0.9210157   0.0000000  )
         9           Al  tau(   9) = (  -0.3334943   0.7905175   0.0000000  )
        10           Al  tau(  10) = (  -0.1422251   0.7840942   0.0000000  )
        11           Al  tau(  11) = (  -0.0691066   0.6116439   0.0000000  )
        12           Al  tau(  12) = (   0.5276798   0.1153783   0.0000000  )
        13           Al  tau(  13) = (   0.5713662  -0.0709974   0.0000000  )
        14           Al  tau(  14) = (   0.3637571   0.3993025   0.0000000  )
        15           Al  tau(  15) = (   0.3571309   0.2061932   0.0000000  )
        16           Al  tau(  16) = (   0.0969769   0.7075356   0.0000000  )
        17           Al  tau(  17) = (   0.2241963   0.5303221   0.0000000  )

     number of k points=     1  Methfessel-Paxton smearing, width (Ry)=  0.0500
                       cart. coord. in units 2pi/alat
        k(    1) = (   0.0000000   0.0000000   0.0000000), wk =   2.0000000

     Initial potential from superposition of free atoms

     starting charge   50.95840, renormalised to   51.00000

     negative rho (up, down):  4.058E-05 0.000E+00
     Starting wfcs are   68 randomized atomic wfcs

     Self-consistent Calculation

[...]

     total energy              =     -78.04097243 Ry
     Harris-Foulkes estimate   =     -78.04097245 Ry
     estimated scf accuracy    <       0.00000002 Ry

     iteration # 14     ecut=    80.00 Ry     beta= 0.40
     Davidson diagonalization with overlap
     ethr =  4.65E-11,  avg # of iterations =  2.0

[...]

     End of self-consistent calculation

          k = 0.0000 0.0000 0.0000 (184583 PWs)   bands (ev):

   -11.1672 -10.1100  -9.9928  -9.7260  -9.6047  -8.8038  -8.7435  -8.3485
    -8.1896  -6.5534  -6.1697  -5.9969  -5.5552  -5.1781  -5.0955  -4.9599
    -4.9200  -4.6904  -4.6125  -4.5998  -4.2912  -4.2519  -3.5143  -3.4581
    -3.2805  -3.2004  -2.3318  -2.2673  -1.9207  -1.8374  -1.4272

     the Fermi energy is    -2.9706 ev

!    total energy              =     -78.04097243 Ry
     Harris-Foulkes estimate   =     -78.04097243 Ry
     estimated scf accuracy    <          6.5E-10 Ry

     The total energy is the sum of the following terms:

     one-electron contribution =    -362.12587044 Ry
     hartree contribution      =     186.05764679 Ry
     xc contribution           =     -34.73876121 Ry
     ewald contribution        =     132.75456779 Ry
     smearing contrib. (-TS)   =       0.01144464 Ry

     convergence has been achieved in  14 iterations

     negative rho (up, down):  5.557E-06 0.000E+00

     Forces acting on atoms (cartesian axes, Ry/au):

     atom    1 type  1   force =    -0.00000318    0.00000439    0.00000000
     atom    2 type  1   force =     0.00000217    0.00000126    0.00000000
     atom    3 type  1   force =    -0.00000022   -0.00000491    0.00000000
     atom    4 type  1   force =    -0.00000226   -0.00000130    0.00000000
     atom    5 type  1   force =    -0.00000100   -0.00000054    0.00000000
     atom    6 type  1   force =     0.00000032   -0.00000415    0.00000000
     atom    7 type  1   force =    -0.00000437    0.00000226    0.00000000
     atom    8 type  1   force =     0.00000221   -0.00000495    0.00000000
     atom    9 type  1   force =    -0.00000097   -0.00000060    0.00000000
     atom   10 type  1   force =    -0.00000344    0.00000235    0.00000000
     atom   11 type  1   force =    -0.00000289   -0.00000167    0.00000000
     atom   12 type  1   force =    -0.00000083   -0.00000026    0.00000000
     atom   13 type  1   force =     0.00000438    0.00000646    0.00000000
     atom   14 type  1   force =    -0.00000064   -0.00000059    0.00000000
     atom   15 type  1   force =     0.00000085    0.00000049    0.00000000
     atom   16 type  1   force =     0.00000207    0.00000120    0.00000000
     atom   17 type  1   force =     0.00000779    0.00000056    0.00000000

     Total force =     0.000017     Total SCF correction =     0.000012
     SCF correction compared to forces is large: reduce conv_thr to get better values

     Computing stress (Cartesian axis) and pressure

     negative rho (up, down):  5.557E-06 0.000E+00
          total   stress  (Ry/bohr**3)                   (kbar)     P=    0.00
   0.00000002   0.00000000  -0.00000000          0.00      0.00     -0.00
   0.00000000   0.00000002  -0.00000000          0.00      0.00     -0.00
   0.00000000   0.00000000  -0.00000001          0.00      0.00     -0.00

     Writing output data file 3al_planar_2x2_vcr.save/

     General routines

     Parallel routines

      22h

   This run was terminated on:  17:22:23  25Nov2020

   JOB DONE.