     Program PWSCF v.6.3MaX starts on 26Nov2020 at  9:16:59

     R & G space division:  proc/nbgrp/npool/nimage =       8
     Waiting for input...
     Reading input from standard input

     Current dimensions of program PWSCF are:
     Max number of different atomic species (ntypx) = 10
     Max number of k-points (npk) =  40000
     Max angular momentum in pseudopotentials (lmaxx) =  3

     Subspace diagonalization in iterative solution of the eigenvalue problem:
     a serial algorithm will be used

     bravais-lattice index     =            4
     lattice parameter (alat)  =      33.6810  a.u.
     unit-cell volume          =   37130.3117 (a.u.)^3
     number of atoms/cell      =           31
     number of atomic types    =            1
     number of electrons       =        93.00
     number of Kohn-Sham states=           56
     kinetic-energy cutoff     =      80.0000  Ry
     charge density cutoff     =     320.0000  Ry
     convergence threshold     =      1.0E-06
     mixing beta               =       0.4000
     number of iterations used =            8  plain     mixing
     Exchange-correlation      = PBE ( 1  4  3  4 0 0)
     nstep                     =          300

     celldm(1)=  33.680967  celldm(2)=   0.000000  celldm(3)=   1.122133
     celldm(4)=   0.000000  celldm(5)=   0.000000  celldm(6)=   0.000000

     crystal axes: (cart. coord. in units of alat)
               a(1) = (   1.000000   0.000000   0.000000 )
               a(2) = (  -0.500000   0.866025   0.000000 )
               a(3) = (   0.000000   0.000000   1.122133 )

     reciprocal axes: (cart. coord. in units 2 pi/alat)
               b(1) = (  1.000000  0.577350  0.000000 )
               b(2) = (  0.000000  1.154701  0.000000 )
               b(3) = (  0.000000  0.000000  0.891160 )

     PseudoPot. # 1 for Al read from file:
     ./Al.upf
     MD5 check sum: 4974d48a734c9d7d1eb6780a1419d19d
     Pseudo is Norm-conserving + core correction, Zval =  3.0
     Generated using ONCVPSP code by D. R. Hamann
     Using radial grid of 1876 points,  6 beta functions with:
                l(1) =   0
                l(2) =   0
                l(3) =   1
                l(4) =   1
                l(5) =   2
                l(6) =   2

     atomic species   valence    mass     pseudopotential
        Al             3.00    29.98200     Al( 1.00)

      4 Sym. Ops. (no inversion) found ( 2 have fractional translation)

   Cartesian axes

     site n.     atom                  positions (alat units)
         1           Al  tau(   1) = (  -0.0000000   0.1443393   0.0000000  )
         2           Al  tau(   2) = (   0.1250015   0.0721696   0.0000000  )
         3           Al  tau(   3) = (  -0.1249997   0.3608472   0.0000000  )
         4           Al  tau(   4) = (   0.0000018   0.2886775   0.0000000  )
         5           Al  tau(   5) = (  -0.2499994   0.5773550   0.0000000  )
         6           Al  tau(   6) = (  -0.1249979   0.5051854   0.0000000  )
         7           Al  tau(   7) = (  -0.3749991   0.7938629   0.0000000  )
         8           Al  tau(   8) = (  -0.2499976   0.7216932   0.0000000  )
         9           Al  tau(   9) = (   0.2500011   0.1443403   0.0000000  )
        10           Al  tau(  10) = (   0.3750027   0.0721706   0.0000000  )
        11           Al  tau(  11) = (   0.1250014   0.3608482   0.0000000  )
        12           Al  tau(  12) = (   0.2500030   0.2886785   0.0000000  )
        13           Al  tau(  13) = (   0.0000017   0.5773560   0.0000000  )
        14           Al  tau(  14) = (   0.1250033   0.5051864   0.0000000  )
        15           Al  tau(  15) = (  -0.1249980   0.7938639   0.0000000  )
        16           Al  tau(  16) = (   0.0000036   0.7216942   0.0000000  )
        17           Al  tau(  17) = (   0.5000023   0.1443413   0.0000000  )
        18           Al  tau(  18) = (   0.6250038   0.0721717   0.0000000  )
        19           Al  tau(  19) = (   0.3750026   0.3608492   0.0000000  )
        20           Al  tau(  20) = (   0.5000041   0.2886795   0.0000000  )
        21           Al  tau(  21) = (   0.2500029   0.5773571   0.0000000  )
        22           Al  tau(  22) = (   0.3750044   0.5051874   0.0000000  )
        23           Al  tau(  23) = (   0.1250032   0.7938649   0.0000000  )
        24           Al  tau(  24) = (   0.2500047   0.7216953   0.0000000  )
        25           Al  tau(  25) = (   0.7500035   0.1443423   0.0000000  )
        26           Al  tau(  26) = (   0.8750050   0.0721727   0.0000000  )
        27           Al  tau(  27) = (   0.6250038   0.3608502   0.0000000  )
        28           Al  tau(  28) = (   0.7500053   0.2886805   0.0000000  )
        29           Al  tau(  29) = (   0.5000041   0.5773581   0.0000000  )
        30           Al  tau(  30) = (   0.3750044   0.7938660   0.0000000  )
        31           Al  tau(  31) = (   0.5000059   0.7216963   0.0000000  )

     number of k points=     1  Methfessel-Paxton smearing, width (Ry)=  0.0500
                       cart. coord. in units 2pi/alat
        k(    1) = (   0.0000000   0.0000000   0.0000000), wk =   2.0000000

     Initial potential from superposition of free atoms

     starting charge   92.92414, renormalised to   93.00000

     negative rho (up, down):  9.278E-05 0.000E+00
     Starting wfcs are  124 randomized atomic wfcs

     Self-consistent Calculation

     iteration #  1     ecut=    80.00 Ry     beta= 0.40
     Davidson diagonalization with overlap
     ethr =  1.00E-02,  avg # of iterations =  2.0

     total energy              =    -140.64206276 Ry
     Harris-Foulkes estimate   =    -141.23600835 Ry
     estimated scf accuracy    <       1.54881661 Ry

[...]

     negative rho (up, down):  2.208E-07 0.000E+00

[...]

     End of self-consistent calculation

          k = 0.0000 0.0000 0.0000 (448403 PWs)   bands (ev):

    -9.9530  -9.4485  -9.4330  -9.4326  -9.4262  -9.4258  -9.1458  -8.4049
    -8.4047  -8.3881  -8.3880  -8.3798  -8.3036  -8.2571  -8.2569  -7.5862
    -6.9325  -6.9324  -6.8235  -6.4866  -6.4773  -6.4772  -6.3701  -6.3700
    -5.4641  -4.8435  -4.8433  -4.8370  -4.7357  -4.7354  -4.4779  -4.4680
    -4.4430  -4.4430  -4.1226  -4.1224  -3.9779  -3.4713  -3.4688  -3.4685
    -3.4578  -3.4575  -3.4017  -3.2746  -3.2742  -3.2223  -3.2074  -2.9743
    -2.9653  -2.9652  -2.9389  -2.5199  -2.5196  -2.4498  -2.4483  -2.4314

     the Fermi energy is    -3.0910 ev

!    total energy              =    -140.93611478 Ry
     Harris-Foulkes estimate   =    -140.93611558 Ry
     estimated scf accuracy    <       0.00000095 Ry

     The total energy is the sum of the following terms:

     one-electron contribution =    -502.03652317 Ry
     hartree contribution      =     259.76376245 Ry
     xc contribution           =     -61.33579811 Ry
     ewald contribution        =     162.75343587 Ry
     smearing contrib. (-TS)   =      -0.08099182 Ry

     convergence has been achieved in  16 iterations

[...]

     Forces acting on atoms (cartesian axes, Ry/au):

     atom    1 type  1   force =    -0.00043919   -0.00029944    0.00000000
     atom    2 type  1   force =     0.00000000    0.00136871    0.00000000
     atom    3 type  1   force =    -0.00110672    0.00061062    0.00000000
     atom    4 type  1   force =     0.00113970   -0.00058833    0.00000000
     atom    5 type  1   force =    -0.01313358   -0.00754388    0.00000000
     atom    6 type  1   force =     0.00259302   -0.00216645    0.00000000
     atom    7 type  1   force =     0.00000000   -0.00135066    0.00000000
     atom    8 type  1   force =    -0.00061526    0.00328862    0.00000000
     atom    9 type  1   force =     0.00043919   -0.00029944    0.00000000
     atom   10 type  1   force =     0.00204924   -0.00116200    0.00000000
     atom   11 type  1   force =     0.00000000    0.00052403    0.00000000
     atom   12 type  1   force =    -0.00113970   -0.00058833    0.00000000
     atom   13 type  1   force =    -0.00372286   -0.00397461    0.00000000
     atom   14 type  1   force =     0.00000000    0.00228969    0.00000000
     atom   15 type  1   force =    -0.00529879   -0.00121136    0.00000000
     atom   16 type  1   force =     0.00188163    0.00107654    0.00000000
     atom   17 type  1   force =    -0.00158905    0.00515950    0.00000000
     atom   18 type  1   force =     0.00000000   -0.00212143    0.00000000
     atom   19 type  1   force =     0.00110672    0.00061062    0.00000000
     atom   20 type  1   force =    -0.00318631   -0.00112287    0.00000000
     atom   21 type  1   force =     0.00372286   -0.00397461    0.00000000
     atom   22 type  1   force =    -0.00259302   -0.00216645    0.00000000
     atom   23 type  1   force =     0.00000000   -0.00001324    0.00000000
     atom   24 type  1   force =    -0.00188163    0.00107654    0.00000000
     atom   25 type  1   force =     0.00158905    0.00515950    0.00000000
     atom   26 type  1   force =    -0.00204924   -0.00116200    0.00000000
     atom   27 type  1   force =     0.00000000    0.01517021    0.00000000
     atom   28 type  1   force =     0.00318631   -0.00112287    0.00000000
     atom   29 type  1   force =     0.01313358   -0.00754388    0.00000000
     atom   30 type  1   force =     0.00529879   -0.00121136    0.00000000
     atom   31 type  1   force =     0.00061526    0.00328862    0.00000000

     Total force =     0.031224     Total SCF correction =     0.000751

     Computing stress (Cartesian axis) and pressure

     negative rho (up, down):  3.831E-05 0.000E+00
          total   stress  (Ry/bohr**3)                   (kbar)     P=   -0.57
  -0.00000581   0.00000000   0.00000000         -0.86      0.00      0.00
   0.00000000  -0.00000575  -0.00000000          0.00     -0.85     -0.00
   0.00000000  -0.00000000   0.00000001          0.00     -0.00      0.00

     BFGS Geometry Optimization

     number of scf cycles    =   1
     number of bfgs steps    =   0

     enthalpy new            =    -140.9361147840 Ry

     new trust radius        =       0.0151702132 bohr
     new conv_thr            =       0.0000010000 Ry

     new unit-cell volume =  37119.58060 a.u.^3 (  5500.55427 Ang^3 )
     density =      0.28059 g/cm^3

CELL_PARAMETERS (alat= 33.68096681)
   0.999854689   0.000000000   0.000000000
  -0.499927344   0.865900937   0.000000000
   0.000000000   0.000000000   1.122132950

ATOMIC_POSITIONS (angstrom)
Al      -0.000232959   2.572059701   0.000000000
Al       2.227602998   1.286832745   0.000000000
Al      -2.228157055   6.430849713   0.000000000
Al       0.000635111   5.144105775   0.000000000
Al      -4.462091375  10.284843659   0.000000000
Al      -2.226166843   9.001579290   0.000000000
Al      -6.682713297  14.146428998   0.000000000
Al      -4.455435246  12.862774074   0.000000000
Al       4.455405104   2.572077894   0.000000000
Al       6.683860570   1.285511938   0.000000000
Al       2.227601826   6.430822092   0.000000000
Al       4.454602394   5.144123968   0.000000000
Al      -0.001938842  10.286750356   0.000000000
Al       2.227634507   9.003955231   0.000000000
Al      -2.230343573  14.146520895   0.000000000
[...]

     Writing output data file 30al_planar_2x2_vcr.save/
     NEW-OLD atomic charge density approx. for the potential

     negative rho (up, down):  3.833E-05 0.000E+00
     extrapolated charge   92.97314, renormalised to   93.00000

[...]

     Threshold (ethr) on eigenvalues was too large:
     Diagonalizing with lowered threshold

     Davidson diagonalization with overlap
     ethr =  9.04E-08,  avg # of iterations =  5.0

[...]

     enthalpy old            =    -140.9361147840 Ry
     enthalpy new            =    -140.9371174512 Ry

     CASE: enthalpy_new < enthalpy_old

     WARNING: bfgs curvature condition failed, Theta= 0.855
     new trust radius        =       0.0227520494 bohr
     new conv_thr            =       0.0000010000 Ry

[...]

     iteration #  1     ecut=    80.00 Ry     beta= 0.40
     Davidson diagonalization with overlap
     c_bands:  1 eigenvalues not converged
     ethr =  1.00E-06,  avg # of iterations = 20.0

[...]

     Writing output data file 30al_planar_2x2_vcr.save/
     NEW-OLD atomic charge density approx. for the potential

[...]

     Writing output data file 30al_planar_2x2_vcr.save/
     NEW-OLD atomic charge density approx. for the potential
     Check: negative starting charge=   -0.000121

[...]

     Writing output data file 30al_planar_2x2_vcr.save/
     Check: negative starting charge=   -0.000121
     NEW-OLD atomic charge density approx. for the potential
     Check: negative starting charge=   -0.000133

[...]

     CASE: enthalpy_new > enthalpy_old

[...]

     WARNING: bfgs curvature condition failed, Theta= 0.983
     new trust radius        =       0.0194521311 bohr
     new conv_thr            =       0.0000000597 Ry

[...]

     Total force =     0.000534     Total SCF correction =     0.000053

[...]

     Total force =     0.000252     Total SCF correction =     0.000042
     SCF correction compared to forces is large: reduce conv_thr to get better values

[...]

     small trust_radius: resetting bfgs history

[...]

     number of scf cycles    = 194
     number of bfgs steps    = 192

     enthalpy old            =    -141.9736192545 Ry
     enthalpy new            =    -141.9736192550 Ry

     CASE: enthalpy_new < enthalpy_old

     Message from routine bfgs:
     history already reset at previous step: stopping
     small trust_radius: resetting bfgs history

     new trust radius        =       0.0000062291 bohr
     new conv_thr            =       0.0000000100 Ry

     new unit-cell volume =  27359.98471 a.u.^3 (  4054.33139 Ang^3 )
     density =      0.38067 g/cm^3

[...]

ATOMIC_POSITIONS (angstrom)
Al      -0.919932019   1.616482738   0.000000000
Al       1.899499167   1.521357683   0.000000000
Al      -0.681571703   6.086222831   0.000000000
Al       0.544670980   3.755483145   0.000000000
Al      -4.473343127   7.486113691   0.000000000
Al      -2.127419277   8.586583638   0.000000000
Al      -5.698415898  12.324043250   0.000000000
Al      -4.352862442  10.122095049   0.000000000
Al       4.718901486   1.616498464   0.000000000
Al       7.044602418   0.314705993   0.000000000
Al       1.899498168   6.058587272   0.000000000
Al       3.254354221   3.755498871   0.000000000
Al       0.476877086   8.338386037   0.000000000
Al       1.899526034  10.365111667   0.000000000
Al      -2.959112002  12.343500442   0.000000000
Al      -0.665386744  10.915838430   0.000000000
Al       7.048835994   2.925820327   0.000000000
Al       9.497440099   2.016468954   0.000000000
Al       4.480568036   6.086254280   0.000000000
Al       6.876204334   5.423202812   0.000000000
Al       3.322146116   8.338401763   0.000000000
Al       5.926471345   8.586615090   0.000000000
Al       1.899525035  12.792710621   0.000000000
Al       4.464465678  10.915854156   0.000000000
Al      11.946015337   2.925836053   0.000000000
Al      11.950277779   0.314737446   0.000000000
Al       9.497439099   4.757784353   0.000000000
Al      12.118702730   5.423218539   0.000000000
Al       8.272366329   7.486160870   0.000000000
Al       6.758162071  12.343531894   0.000000000
Al       8.151941378  10.122142227   0.000000000

     Writing output data file 30al_planar_2x2_vcr.save/
     Check: negative starting charge=   -0.000133
     NEW-OLD atomic charge density approx. for the potential
     Check: negative starting charge=   -0.000133

     negative rho (up, down):  8.904E-06 0.000E+00
     extrapolated charge   93.00002, renormalised to   93.00000

[...]

     Threshold (ethr) on eigenvalues was too large:
     Diagonalizing with lowered threshold

     Davidson diagonalization with overlap
     ethr =  2.13E-10,  avg # of iterations =  2.0

[...]

     bfgs converged in 195 scf cycles and 193 bfgs steps
     (criteria: energy <  1.0E-05 Ry, force <  1.0E-04Ry/Bohr, cell <  5.0E-05kbar)

     End of BFGS Geometry Optimization

     Final enthalpy =    -141.9736192531 Ry
Begin final coordinates
     new unit-cell volume =  27359.98471 a.u.^3 (  4054.33139 Ang^3 )
     density =      0.38067 g/cm^3

CELL_PARAMETERS (alat= 33.68096681)
   0.852586008  -0.000000000   0.000000000
  -0.426293004   0.748479114   0.000000000
   0.000000000   0.000000000   1.122132950

ATOMIC_POSITIONS (angstrom)
Al      -0.919932019   1.616482738   0.000000000
Al       1.899499167   1.521357683   0.000000000
Al      -0.681571703   6.086222831   0.000000000
Al       0.544670980   3.755483145   0.000000000
Al      -4.473343127   7.486113691   0.000000000
Al      -2.127419277   8.586583638   0.000000000
Al      -5.698415898  12.324043250   0.000000000
Al      -4.352862442  10.122095049   0.000000000
Al       4.718901486   1.616498464   0.000000000
Al       7.044602418   0.314705993   0.000000000
Al       1.899498168   6.058587272   0.000000000
Al       3.254354221   3.755498871   0.000000000
Al       0.476877086   8.338386037   0.000000000
Al       1.899526034  10.365111667   0.000000000
Al      -2.959112002  12.343500442   0.000000000
Al      -0.665386744  10.915838430   0.000000000
Al       7.048835994   2.925820327   0.000000000
Al       9.497440099   2.016468954   0.000000000
Al       4.480568036   6.086254280   0.000000000
Al       6.876204334   5.423202812   0.000000000
Al       3.322146116   8.338401763   0.000000000
Al       5.926471345   8.586615090   0.000000000
Al       1.899525035  12.792710621   0.000000000
Al       4.464465678  10.915854156   0.000000000
Al      11.946015337   2.925836053   0.000000000
Al      11.950277779   0.314737446   0.000000000
Al       9.497439099   4.757784353   0.000000000
Al      12.118702730   5.423218539   0.000000000
Al       8.272366329   7.486160870   0.000000000
Al       6.758162071  12.343531894   0.000000000
Al       8.151941378  10.122142227   0.000000000
End final coordinates

     Writing output data file 30al_planar_2x2_vcr.save/

     A final scf calculation at the relaxed structure.
     The G-vectors are recalculated for the final unit cell
     Results may differ from those at the preceding step.

     bravais-lattice index     =            4
     lattice parameter (alat)  =      33.6810  a.u.
     unit-cell volume          =   27359.9847 (a.u.)^3
     number of atoms/cell      =           31
     number of atomic types    =            1
     number of electrons       =        93.00
     number of Kohn-Sham states=           56
     kinetic-energy cutoff     =      80.0000  Ry
     charge density cutoff     =     320.0000  Ry
     convergence threshold     =      1.0E-08
     mixing beta               =       0.4000
     number of iterations used =            8  plain     mixing
     Exchange-correlation      = PBE ( 1  4  3  4 0 0)

     celldm(1)=  33.680967  celldm(2)=   0.000000  celldm(3)=   1.122133
     celldm(4)=   0.000000  celldm(5)=   0.000000  celldm(6)=   0.000000

     crystal axes: (cart. coord. in units of alat)
               a(1) = (   0.852586  -0.000000   0.000000 )
               a(2) = (  -0.426293   0.748479   0.000000 )
               a(3) = (   0.000000   0.000000   1.122133 )

     reciprocal axes: (cart. coord. in units 2 pi/alat)
               b(1) = (  1.172902  0.668021  0.000000 )
               b(2) = (  0.000000  1.336043  0.000000 )
               b(3) = (  0.000000  0.000000  0.891160 )

     PseudoPot. # 1 for Al read from file:
     ./Al.upf
     MD5 check sum: 4974d48a734c9d7d1eb6780a1419d19d
     Pseudo is Norm-conserving + core correction, Zval =  3.0
     Generated using ONCVPSP code by D. R. Hamann
     Using radial grid of 1876 points,  6 beta functions with:
                l(1) =   0
                l(2) =   0
                l(3) =   1
                l(4) =   1
                l(5) =   2
                l(6) =   2

     atomic species   valence    mass     pseudopotential
        Al             3.00    29.98200     Al( 1.00)

      4 Sym. Ops. (no inversion) found ( 2 have fractional translation)

   Cartesian axes

     site n.     atom                  positions (alat units)
         1           Al  tau(   1) = (  -0.0516143   0.0906954   0.0000000  )
         2           Al  tau(   2) = (   0.1065745   0.0853583   0.0000000  )
         3           Al  tau(   3) = (  -0.0382407   0.3414776   0.0000000  )
         4           Al  tau(   4) = (   0.0305597   0.2107076   0.0000000  )
         5           Al  tau(   5) = (  -0.2509843   0.4200207   0.0000000  )
         6           Al  tau(   6) = (  -0.1193624   0.4817644   0.0000000  )
         7           Al  tau(   7) = (  -0.3197190   0.6914608   0.0000000  )
         8           Al  tau(   8) = (  -0.2442245   0.5679168   0.0000000  )
         9           Al  tau(   9) = (   0.2647617   0.0906963   0.0000000  )
        10           Al  tau(  10) = (   0.3952490   0.0176571   0.0000000  )
        11           Al  tau(  11) = (   0.1065745   0.3399270   0.0000000  )
        12           Al  tau(  12) = (   0.1825909   0.2107085   0.0000000  )
        13           Al  tau(  13) = (   0.0267560   0.4678389   0.0000000  )
        14           Al  tau(  14) = (   0.1065760   0.5815517   0.0000000  )
        15           Al  tau(  15) = (  -0.1660259   0.6925524   0.0000000  )
        16           Al  tau(  16) = (  -0.0373326   0.6124511   0.0000000  )
        17           Al  tau(  17) = (   0.3954866   0.1641580   0.0000000  )
        18           Al  tau(  18) = (   0.5328695   0.1131373   0.0000000  )
        19           Al  tau(  19) = (   0.2513897   0.3414793   0.0000000  )
        20           Al  tau(  20) = (   0.3858008   0.3042777   0.0000000  )
        21           Al  tau(  21) = (   0.1863945   0.4678398   0.0000000  )
        22           Al  tau(  22) = (   0.3325144   0.4817662   0.0000000  )
        23           Al  tau(  23) = (   0.1065760   0.7177561   0.0000000  )
        24           Al  tau(  24) = (   0.2504862   0.6124520   0.0000000  )
        25           Al  tau(  25) = (   0.6702509   0.1641589   0.0000000  )
        26           Al  tau(  26) = (   0.6704900   0.0176589   0.0000000  )
        27           Al  tau(  27) = (   0.5328695   0.2669433   0.0000000  )
        28           Al  tau(  28) = (   0.6799398   0.3042786   0.0000000  )
        29           Al  tau(  29) = (   0.4641347   0.4200234   0.0000000  )
        30           Al  tau(  30) = (   0.3791778   0.6925542   0.0000000  )
        31           Al  tau(  31) = (   0.4573781   0.5679195   0.0000000  )

     number of k points=     1  Methfessel-Paxton smearing, width (Ry)=  0.0500
                       cart. coord. in units 2pi/alat
        k(    1) = (   0.0000000   0.0000000   0.0000000), wk =   2.0000000

     Initial potential from superposition of free atoms

     starting charge   92.92414, renormalised to   93.00000

     negative rho (up, down):  7.322E-05 0.000E+00
     Starting wfcs are  124 randomized atomic wfcs

     Self-consistent Calculation

     iteration #  1     ecut=    80.00 Ry     beta= 0.40
     Davidson diagonalization with overlap
     c_bands:  1 eigenvalues not converged
     ethr =  1.00E-06,  avg # of iterations = 20.0

[...]

     total energy              =    -141.97340249 Ry
     Harris-Foulkes estimate   =    -141.97340249 Ry
     estimated scf accuracy    <       0.00000002 Ry

     iteration # 17     ecut=    80.00 Ry     beta= 0.40
     Davidson diagonalization with overlap
     ethr =  1.89E-11,  avg # of iterations =  4.0

[...]

     End of self-consistent calculation

          k = 0.0000 0.0000 0.0000 (330477 PWs)   bands (ev):

   -11.4587 -10.8344 -10.6798 -10.5837 -10.5365 -10.4470 -10.3902  -9.1877
    -9.0475  -8.9941  -8.8826  -8.8725  -8.6676  -8.2541  -8.1418  -8.1406
    -8.1144  -7.9021  -7.6537  -6.0615  -6.0008  -5.9550  -5.9510  -5.9029
    -5.8267  -5.6763  -5.5429  -5.4644  -5.4248  -5.2845  -5.2166  -4.7784
    -4.4731  -4.3408  -4.1366  -4.1325  -4.0305  -3.9587  -3.9368  -3.8757
    -3.8235  -3.7908  -3.7411  -3.7335  -2.5375  -2.4429  -2.3973  -2.3462
    -2.2950  -2.1898  -2.1816  -2.0756  -1.9453  -1.7869  -1.7061  -1.6151

     the Fermi energy is    -2.4736 ev

!    total energy              =    -141.97340244 Ry
     Harris-Foulkes estimate   =    -141.97340245 Ry
     estimated scf accuracy    <          8.3E-09 Ry

     The total energy is the sum of the following terms:

     one-electron contribution =    -670.66739035 Ry
     hartree contribution      =     344.06122330 Ry
     xc contribution           =     -63.39924274 Ry
     ewald contribution        =     248.08174469 Ry
     smearing contrib. (-TS)   =      -0.04973735 Ry

     convergence has been achieved in  17 iterations

     negative rho (up, down):  8.894E-06 0.000E+00

     Forces acting on atoms (cartesian axes, Ry/au):

     atom    1 type  1   force =     0.00000145    0.00000130    0.00000000
     atom    2 type  1   force =    -0.00000000   -0.00000960    0.00000000
     atom    3 type  1   force =    -0.00000745   -0.00000291    0.00000000
     atom    4 type  1   force =    -0.00000300    0.00000253    0.00000000
     atom    5 type  1   force =    -0.00000587    0.00000299    0.00000000
     atom    6 type  1   force =     0.00000570    0.00000266    0.00000000
     atom    7 type  1   force =     0.00000000    0.00000680    0.00000000
     atom    8 type  1   force =     0.00000147   -0.00000907    0.00000000
     atom    9 type  1   force =    -0.00000145    0.00000130    0.00000000
     atom   10 type  1   force =    -0.00000769   -0.00001039    0.00000000
     atom   11 type  1   force =    -0.00000000   -0.00000031    0.00000000
     atom   12 type  1   force =     0.00000300    0.00000253    0.00000000
     atom   13 type  1   force =    -0.00000140    0.00000716    0.00000000
     atom   14 type  1   force =     0.00000000    0.00000049    0.00000000
     atom   15 type  1   force =     0.00000050   -0.00000511    0.00000000
     atom   16 type  1   force =    -0.00000313    0.00000202    0.00000000
     atom   17 type  1   force =    -0.00000447    0.00001032    0.00000000
     atom   18 type  1   force =     0.00000000    0.00000176    0.00000000
     atom   19 type  1   force =     0.00000745   -0.00000291    0.00000000
     atom   20 type  1   force =     0.00000255    0.00000439    0.00000000
     atom   21 type  1   force =     0.00000140    0.00000716    0.00000000
     atom   22 type  1   force =    -0.00000570    0.00000266    0.00000000
     atom   23 type  1   force =    -0.00000000   -0.00000812    0.00000000
     atom   24 type  1   force =     0.00000313    0.00000202    0.00000000
     atom   25 type  1   force =     0.00000447    0.00001032    0.00000000
     atom   26 type  1   force =     0.00000769   -0.00001039    0.00000000
     atom   27 type  1   force =    -0.00000000   -0.00000281    0.00000000
     atom   28 type  1   force =    -0.00000255    0.00000439    0.00000000
     atom   29 type  1   force =     0.00000587    0.00000299    0.00000000
     atom   30 type  1   force =    -0.00000050   -0.00000511    0.00000000
     atom   31 type  1   force =    -0.00000147   -0.00000907    0.00000000

     Total force =     0.000039     Total SCF correction =     0.000091
     SCF correction compared to forces is large: reduce conv_thr to get better values

     Computing stress (Cartesian axis) and pressure

     negative rho (up, down):  8.894E-06 0.000E+00
          total   stress  (Ry/bohr**3)                   (kbar)     P=    0.00
   0.00000004   0.00000000   0.00000000          0.01      0.00      0.00
   0.00000000   0.00000003   0.00000000          0.00      0.00      0.00
  -0.00000000  -0.00000000  -0.00000001         -0.00     -0.00     -0.00

     Writing output data file 30al_planar_2x2_vcr.save/

     General routines

     Parallel routines

      29h

   This run was terminated on:   3:46:33  27Nov2020

   JOB DONE.