     Program PWSCF v.6.3MaX starts on 25Nov2020 at 11:59:58

     R & G space division:  proc/nbgrp/npool/nimage =       8
     Waiting for input...
     Reading input from standard input

     Current dimensions of program PWSCF are:
     Max number of different atomic species (ntypx) = 10
     Max number of k-points (npk) =  40000
     Max angular momentum in pseudopotentials (lmaxx) =  3

     Subspace diagonalization in iterative solution of the eigenvalue problem:
     a serial algorithm will be used

     bravais-lattice index     =            4
     lattice parameter (alat)  =      25.2607  a.u.
     unit-cell volume          =   20885.8003 (a.u.)^3
     number of atoms/cell      =           17
     number of atomic types    =            1
     number of electrons       =        51.00
     number of Kohn-Sham states=           31
     kinetic-energy cutoff     =      80.0000  Ry
     charge density cutoff     =     320.0000  Ry
     convergence threshold     =      1.0E-06
     mixing beta               =       0.4000
     number of iterations used =            8  plain     mixing
     Exchange-correlation      = PBE ( 1  4  3  4 0 0)
     nstep                     =          300

     celldm(1)=  25.260725  celldm(2)=   0.000000  celldm(3)=   1.496177
     celldm(4)=   0.000000  celldm(5)=   0.000000  celldm(6)=   0.000000

     crystal axes: (cart. coord. in units of alat)
               a(1) = (   1.000000   0.000000   0.000000 )
               a(2) = (  -0.500000   0.866025   0.000000 )
               a(3) = (   0.000000   0.000000   1.496177 )

     reciprocal axes: (cart. coord. in units 2 pi/alat)
               b(1) = (  1.000000  0.577350  0.000000 )
               b(2) = (  0.000000  1.154701  0.000000 )
               b(3) = (  0.000000  0.000000  0.668370 )

     PseudoPot. # 1 for Al read from file:
     ./Al.upf
     MD5 check sum: 4974d48a734c9d7d1eb6780a1419d19d
     Pseudo is Norm-conserving + core correction, Zval =  3.0
     Generated using ONCVPSP code by D. R. Hamann
     Using radial grid of 1876 points,  6 beta functions with:
                l(1) =   0
                l(2) =   0
                l(3) =   1
                l(4) =   1
                l(5) =   2
                l(6) =   2

     atomic species   valence    mass     pseudopotential
        Al             3.00    29.98200     Al( 1.00)

      4 Sym. Ops. (no inversion) found ( 2 have fractional translation)

   Cartesian axes

     site n.     atom                  positions (alat units)
         1           Al  tau(   1) = (   0.1666687   0.0962261   0.0000000  )
         2           Al  tau(   2) = (   0.3333348   0.1924537   0.0000000  )
         3           Al  tau(   3) = (   0.5000036   0.0962275   0.0000000  )
         4           Al  tau(   4) = (  -0.1666663   0.4811295   0.0000000  )
         5           Al  tau(   5) = (   0.0000024   0.3849033   0.0000000  )
         6           Al  tau(   6) = (   0.1666686   0.4811309   0.0000000  )
         7           Al  tau(   7) = (   0.3333373   0.3849047   0.0000000  )
         8           Al  tau(   8) = (  -0.3333326   0.7698067   0.0000000  )
         9           Al  tau(   9) = (  -0.1666639   0.6735805   0.0000000  )
        10           Al  tau(  10) = (   0.0000023   0.7698081   0.0000000  )
        11           Al  tau(  11) = (   0.1666710   0.6735818   0.0000000  )
        12           Al  tau(  12) = (   0.6666697   0.1924551   0.0000000  )
        13           Al  tau(  13) = (   0.8333384   0.0962289   0.0000000  )
        14           Al  tau(  14) = (   0.5000035   0.4811323   0.0000000  )
        15           Al  tau(  15) = (   0.6666722   0.3849060   0.0000000  )
        16           Al  tau(  16) = (   0.3333372   0.7698094   0.0000000  )
        17           Al  tau(  17) = (   0.5000059   0.6735832   0.0000000  )

     number of k points=     1  Methfessel-Paxton smearing, width (Ry)=  0.0500
                       cart. coord. in units 2pi/alat
        k(    1) = (   0.0000000   0.0000000   0.0000000), wk =   2.0000000

     Initial potential from superposition of free atoms

     starting charge   50.95840, renormalised to   51.00000

     negative rho (up, down):  5.196E-05 0.000E+00
     Starting wfcs are   68 randomized atomic wfcs

     Self-consistent Calculation

     iteration #  1     ecut=    80.00 Ry     beta= 0.40
     Davidson diagonalization with overlap
     ethr =  1.00E-02,  avg # of iterations =  2.0

     total energy              =     -77.03479373 Ry
     Harris-Foulkes estimate   =     -77.31747642 Ry
     estimated scf accuracy    <       0.79254972 Ry

[...]

     negative rho (up, down):  3.346E-07 0.000E+00

[...]

     End of self-consistent calculation

          k = 0.0000 0.0000 0.0000 (252395 PWs)   bands (ev):

    -9.9966  -9.1544  -9.0982  -9.0980  -9.0600  -9.0597  -8.4090  -7.5384
    -7.4675  -7.4673  -6.7264  -5.8851  -5.8794  -5.8793  -5.6094  -5.6093
    -4.7521  -4.7520  -4.0026  -3.5338  -3.3090  -3.2900  -3.2899  -3.2356
    -3.1476  -3.1136  -3.1133  -3.0991  -3.0989  -2.7514  -2.7511

     the Fermi energy is    -3.1137 ev

!    total energy              =     -77.16211731 Ry
     Harris-Foulkes estimate   =     -77.16211806 Ry
     estimated scf accuracy    <       0.00000089 Ry

     The total energy is the sum of the following terms:

     one-electron contribution =    -269.13871424 Ry
     hartree contribution      =     139.26302886 Ry
     xc contribution           =     -33.51707578 Ry
     ewald contribution        =      86.35186857 Ry
     smearing contrib. (-TS)   =      -0.12122471 Ry

     convergence has been achieved in  14 iterations

[...]

     Forces acting on atoms (cartesian axes, Ry/au):

     atom    1 type  1   force =    -0.01928008    0.01112780    0.00000000
     atom    2 type  1   force =     0.00398492   -0.00308794    0.00000000
     atom    3 type  1   force =     0.00000000    0.00950178    0.00000000
     atom    4 type  1   force =     0.00061618    0.00502919    0.00000000
     atom    5 type  1   force =     0.00000000   -0.02230426    0.00000000
     atom    6 type  1   force =    -0.00061618    0.00502919    0.00000000
     atom    7 type  1   force =     0.00061175    0.00034535    0.00000000
     atom    8 type  1   force =     0.00465357   -0.00193495    0.00000000
     atom    9 type  1   force =    -0.00822597   -0.00473294    0.00000000
     atom   10 type  1   force =     0.00000000   -0.00002344    0.00000000
     atom   11 type  1   force =     0.00822597   -0.00473294    0.00000000
     atom   12 type  1   force =    -0.00398492   -0.00308794    0.00000000
     atom   13 type  1   force =     0.01928008    0.01112780    0.00000000
     atom   14 type  1   force =     0.00000000    0.00000220    0.00000000
     atom   15 type  1   force =    -0.00061175    0.00034535    0.00000000
     atom   16 type  1   force =    -0.00465357   -0.00193495    0.00000000
     atom   17 type  1   force =     0.00000000   -0.00066930    0.00000000

     Total force =     0.043743     Total SCF correction =     0.000668

     Computing stress (Cartesian axis) and pressure

     negative rho (up, down):  4.915E-05 0.000E+00
          total   stress  (Ry/bohr**3)                   (kbar)     P=   -0.80
  -0.00000820   0.00000000   0.00000000         -1.21      0.00      0.00
   0.00000000  -0.00000820   0.00000000          0.00     -1.21      0.00
   0.00000000   0.00000000   0.00000002          0.00      0.00      0.00

     BFGS Geometry Optimization

     number of scf cycles    =   1
     number of bfgs steps    =   0

     enthalpy new            =     -77.1621173092 Ry

     new trust radius        =       0.0223042596 bohr
     new conv_thr            =       0.0000010000 Ry

     new unit-cell volume =  20877.23628 a.u.^3 (  3093.68719 Ang^3 )
     density =      0.27358 g/cm^3

CELL_PARAMETERS (alat= 25.26072511)
   0.999795040   0.000000000   0.000000000
  -0.499897520   0.865847762   0.000000000
   0.000000000   0.000000000   1.496177267

ATOMIC_POSITIONS (angstrom)
Al       2.217269617   1.291916949   0.000000000
Al       4.457015239   2.570444635   0.000000000
Al       6.682377634   1.291074863   0.000000000
Al      -2.227112598   6.432792518   0.000000000
Al       0.000032092   5.132300654   0.000000000
Al       2.227142933   6.432810710   0.000000000
Al       4.455263282   5.144302045   0.000000000
Al      -4.452414552  10.287179570   0.000000000
Al      -2.231758023   8.999668648   0.000000000
Al       0.000030921  10.288209085   0.000000000
Al       2.231853715   8.999686840   0.000000000
Al       8.907706179   2.570462827   0.000000000
Al      11.147485651   1.291953333   0.000000000
Al       6.682376462   6.430169280   0.000000000
Al       8.909523493   5.144320238   0.000000000
Al       4.452476394  10.287215955   0.000000000
Al       6.682409140   9.001854976   0.000000000

     Writing output data file 1al_planar_2x2_vcr.save/
     NEW-OLD atomic charge density approx. for the potential

     negative rho (up, down):  4.916E-05 0.000E+00
     extrapolated charge   50.97910, renormalised to   51.00000

[...]

     enthalpy old            =     -77.1621173092 Ry
     enthalpy new            =     -77.1640596774 Ry

     CASE: enthalpy_new < enthalpy_old

     WARNING: bfgs curvature condition failed, Theta= 0.837
     new trust radius        =       0.0334495267 bohr
     new conv_thr            =       0.0000010000 Ry

[...]

     iteration # 10     ecut=    80.00 Ry     beta= 0.40
     Davidson diagonalization with overlap
     c_bands:  1 eigenvalues not converged
     ethr =  3.92E-08,  avg # of iterations = 20.0

[...]

     WARNING: bfgs curvature condition failed, Theta= 0.863
     new trust radius        =       0.5634096778 bohr
     new conv_thr            =       0.0000010000 Ry

[...]

     CASE: enthalpy_new > enthalpy_old

[...]

     Threshold (ethr) on eigenvalues was too large:
     Diagonalizing with lowered threshold

     Davidson diagonalization with overlap
     ethr =  3.42E-08,  avg # of iterations =  6.0

[...]

     Total force =     0.001572     Total SCF correction =     0.000087

[...]

     Total force =     0.000716     Total SCF correction =     0.000085
     SCF correction compared to forces is large: reduce conv_thr to get better values

[...]

     CASE: enthalpy_new < enthalpy_old

     small trust_radius: resetting bfgs history

     new trust radius        =       0.0000053806 bohr
     new conv_thr            =       0.0000000100 Ry

[...]

     negative rho (up, down):  1.732E-05 0.000E+00
     extrapolated charge   51.00001, renormalised to   51.00000

[...]

     number of scf cycles    = 134
     number of bfgs steps    = 131

     enthalpy old            =     -77.8146695757 Ry
     enthalpy new            =     -77.8146695757 Ry

     CASE: enthalpy_new > enthalpy_old

     new trust radius        =       0.0000023097 bohr

     trust_radius < trust_radius_min

     resetting bfgs history

     Message from routine bfgs:
     history already reset at previous step: stopping
     new conv_thr            =       0.0000000100 Ry

     new unit-cell volume =  15817.80618 a.u.^3 (  2343.95701 Ang^3 )
     density =      0.36108 g/cm^3

[...]

ATOMIC_POSITIONS (angstrom)
Al       2.202543588   1.914072537   0.000000000
Al       4.219730519   0.531135800   0.000000000
Al       6.422240072   1.892745902   0.000000000
Al      -2.161661491   4.538076443   0.000000000
Al       0.000030843   3.208843620   0.000000000
Al       2.161690645   4.538090785   0.000000000
Al       4.488536241   3.543920092   0.000000000
Al      -4.488463298   8.025696890   0.000000000
Al      -2.161632203   7.031580037   0.000000000
Al       0.000029717   8.360830455   0.000000000
Al       2.161724169   7.031594379   0.000000000
Al       8.624717093   0.531150142   0.000000000
Al      10.641936556   1.914101220   0.000000000
Al       6.422238946   5.784815412   0.000000000
Al       8.355974183   3.543934434   0.000000000
Al       4.488522732   8.025725574   0.000000000
Al       6.422270352   9.676930172   0.000000000

     Writing output data file 1al_planar_2x2_vcr.save/
     NEW-OLD atomic charge density approx. for the potential

[...]

     Threshold (ethr) on eigenvalues was too large:
     Diagonalizing with lowered threshold

     Davidson diagonalization with overlap
     ethr =  2.71E-11,  avg # of iterations =  1.0

[...]

     bfgs converged in 135 scf cycles and 131 bfgs steps
     (criteria: energy <  1.0E-05 Ry, force <  1.0E-04Ry/Bohr, cell <  5.0E-05kbar)

     End of BFGS Geometry Optimization

     Final enthalpy =     -77.8146695759 Ry
Begin final coordinates
     new unit-cell volume =  15817.80618 a.u.^3 (  2343.95701 Ang^3 )
     density =      0.36108 g/cm^3

CELL_PARAMETERS (alat= 25.26072511)
   0.960874126  -0.000000000   0.000000000
  -0.480437063   0.682588961   0.000000000
   0.000000000   0.000000000   1.496177267

ATOMIC_POSITIONS (angstrom)
Al       2.202543588   1.914072537   0.000000000
Al       4.219730519   0.531135800   0.000000000
Al       6.422240072   1.892745902   0.000000000
Al      -2.161661491   4.538076443   0.000000000
Al       0.000030843   3.208843620   0.000000000
Al       2.161690645   4.538090785   0.000000000
Al       4.488536241   3.543920092   0.000000000
Al      -4.488463298   8.025696890   0.000000000
Al      -2.161632203   7.031580037   0.000000000
Al       0.000029717   8.360830455   0.000000000
Al       2.161724169   7.031594379   0.000000000
Al       8.624717093   0.531150142   0.000000000
Al      10.641936556   1.914101220   0.000000000
Al       6.422238946   5.784815412   0.000000000
Al       8.355974183   3.543934434   0.000000000
Al       4.488522732   8.025725574   0.000000000
Al       6.422270352   9.676930172   0.000000000
End final coordinates

     Writing output data file 1al_planar_2x2_vcr.save/

     A final scf calculation at the relaxed structure.
     The G-vectors are recalculated for the final unit cell
     Results may differ from those at the preceding step.

     bravais-lattice index     =            4
     lattice parameter (alat)  =      25.2607  a.u.
     unit-cell volume          =   15817.8062 (a.u.)^3
     number of atoms/cell      =           17
     number of atomic types    =            1
     number of electrons       =        51.00
     number of Kohn-Sham states=           31
     kinetic-energy cutoff     =      80.0000  Ry
     charge density cutoff     =     320.0000  Ry
     convergence threshold     =      1.0E-08
     mixing beta               =       0.4000
     number of iterations used =            8  plain     mixing
     Exchange-correlation      = PBE ( 1  4  3  4 0 0)

     celldm(1)=  25.260725  celldm(2)=   0.000000  celldm(3)=   1.496177
     celldm(4)=   0.000000  celldm(5)=   0.000000  celldm(6)=   0.000000

     crystal axes: (cart. coord. in units of alat)
               a(1) = (   0.960874  -0.000000   0.000000 )
               a(2) = (  -0.480437   0.682589   0.000000 )
               a(3) = (   0.000000   0.000000   1.496177 )

     reciprocal axes: (cart. coord. in units 2 pi/alat)
               b(1) = (  1.040719  0.732505  0.000000 )
               b(2) = (  0.000000  1.465011  0.000000 )
               b(3) = (  0.000000  0.000000  0.668370 )

     PseudoPot. # 1 for Al read from file:
     ./Al.upf
     MD5 check sum: 4974d48a734c9d7d1eb6780a1419d19d
     Pseudo is Norm-conserving + core correction, Zval =  3.0
     Generated using ONCVPSP code by D. R. Hamann
     Using radial grid of 1876 points,  6 beta functions with:
                l(1) =   0
                l(2) =   0
                l(3) =   1
                l(4) =   1
                l(5) =   2
                l(6) =   2

     atomic species   valence    mass     pseudopotential
        Al             3.00    29.98200     Al( 1.00)

      4 Sym. Ops. (no inversion) found ( 2 have fractional translation)

   Cartesian axes

     site n.     atom                  positions (alat units)
         1           Al  tau(   1) = (   0.1647698   0.1431896   0.0000000  )
         2           Al  tau(   2) = (   0.3156732   0.0397337   0.0000000  )
         3           Al  tau(   3) = (   0.4804405   0.1415942   0.0000000  )
         4           Al  tau(   4) = (  -0.1617114   0.3394883   0.0000000  )
         5           Al  tau(   5) = (   0.0000023   0.2400499   0.0000000  )
         6           Al  tau(   6) = (   0.1617136   0.3394894   0.0000000  )
         7           Al  tau(   7) = (   0.3357823   0.2651166   0.0000000  )
         8           Al  tau(   8) = (  -0.3357768   0.6003933   0.0000000  )
         9           Al  tau(   9) = (  -0.1617092   0.5260245   0.0000000  )
        10           Al  tau(  10) = (   0.0000022   0.6254642   0.0000000  )
        11           Al  tau(  11) = (   0.1617161   0.5260256   0.0000000  )
        12           Al  tau(  12) = (   0.6452053   0.0397347   0.0000000  )
        13           Al  tau(  13) = (   0.7961112   0.1431917   0.0000000  )
        14           Al  tau(  14) = (   0.4804404   0.4327555   0.0000000  )
        15           Al  tau(  15) = (   0.6251009   0.2651177   0.0000000  )
        16           Al  tau(  16) = (   0.3357813   0.6003954   0.0000000  )
        17           Al  tau(  17) = (   0.4804427   0.7239201   0.0000000  )

     number of k points=     1  Methfessel-Paxton smearing, width (Ry)=  0.0500
                       cart. coord. in units 2pi/alat
        k(    1) = (   0.0000000   0.0000000   0.0000000), wk =   2.0000000

     Initial potential from superposition of free atoms

     starting charge   50.95840, renormalised to   51.00000

     negative rho (up, down):  4.106E-05 0.000E+00
     Starting wfcs are   68 randomized atomic wfcs

     Self-consistent Calculation

     iteration #  1     ecut=    80.00 Ry     beta= 0.40
     Davidson diagonalization with overlap
     c_bands:  1 eigenvalues not converged
     ethr =  1.00E-06,  avg # of iterations = 20.0

[...]

     total energy              =     -77.81456075 Ry
     Harris-Foulkes estimate   =     -77.81456079 Ry
     estimated scf accuracy    <       0.00000011 Ry

     iteration # 14     ecut=    80.00 Ry     beta= 0.40
     Davidson diagonalization with overlap
     ethr =  2.12E-10,  avg # of iterations =  2.0

[...]

     End of self-consistent calculation

          k = 0.0000 0.0000 0.0000 (191105 PWs)   bands (ev):

   -11.3235 -10.4667 -10.2426  -9.6571  -9.4871  -9.1148  -8.7461  -7.7738
    -7.6670  -6.8154  -6.3236  -6.1318  -6.1223  -6.0435  -6.0421  -4.9627
    -4.8819  -4.6775  -4.3598  -4.2015  -3.9513  -3.7321  -3.6008  -3.2075
    -3.2039  -3.0295  -2.8244  -2.5240  -2.3419  -1.4809  -1.1551

     the Fermi energy is    -2.9860 ev

!    total energy              =     -77.81456075 Ry
     Harris-Foulkes estimate   =     -77.81456076 Ry
     estimated scf accuracy    <          6.3E-09 Ry

     The total energy is the sum of the following terms:

     one-electron contribution =    -352.34404887 Ry
     hartree contribution      =     181.09958044 Ry
     xc contribution           =     -34.71238996 Ry
     ewald contribution        =     128.16233314 Ry
     smearing contrib. (-TS)   =      -0.02003551 Ry

     convergence has been achieved in  14 iterations

     negative rho (up, down):  1.731E-05 0.000E+00

     Forces acting on atoms (cartesian axes, Ry/au):

     atom    1 type  1   force =    -0.00000757   -0.00001861    0.00000000
     atom    2 type  1   force =     0.00000536    0.00002058    0.00000000
     atom    3 type  1   force =     0.00000000    0.00000001    0.00000000
     atom    4 type  1   force =    -0.00000053   -0.00001832    0.00000000
     atom    5 type  1   force =    -0.00000000   -0.00000749    0.00000000
     atom    6 type  1   force =     0.00000053   -0.00001832    0.00000000
     atom    7 type  1   force =     0.00000928   -0.00001384    0.00000000
     atom    8 type  1   force =    -0.00001053    0.00001447    0.00000000
     atom    9 type  1   force =     0.00000089    0.00001676    0.00000000
     atom   10 type  1   force =     0.00000000    0.00000481    0.00000000
     atom   11 type  1   force =    -0.00000089    0.00001676    0.00000000
     atom   12 type  1   force =    -0.00000536    0.00002058    0.00000000
     atom   13 type  1   force =     0.00000757   -0.00001861    0.00000000
     atom   14 type  1   force =    -0.00000000   -0.00000066    0.00000000
     atom   15 type  1   force =    -0.00000928   -0.00001384    0.00000000
     atom   16 type  1   force =     0.00001053    0.00001447    0.00000000
     atom   17 type  1   force =     0.00000000    0.00000127    0.00000000

     Total force =     0.000065     Total SCF correction =     0.000067
     SCF correction compared to forces is large: reduce conv_thr to get better values

     Computing stress (Cartesian axis) and pressure

     negative rho (up, down):  1.731E-05 0.000E+00
          total   stress  (Ry/bohr**3)                   (kbar)     P=   -0.00
   0.00000003   0.00000000   0.00000000          0.00      0.00      0.00
   0.00000000  -0.00000004   0.00000000          0.00     -0.01      0.00
  -0.00000000  -0.00000000  -0.00000001         -0.00     -0.00     -0.00

     Writing output data file 1al_planar_2x2_vcr.save/

     General routines

     Parallel routines

       9h

   This run was terminated on:  16: 9:12  25Nov2020

   JOB DONE.