     Program PWSCF v.6.3MaX starts on 25Nov2020 at 11:12:52

     R & G space division:  proc/nbgrp/npool/nimage =       8
     Waiting for input...
     Reading input from standard input

     Current dimensions of program PWSCF are:
     Max number of different atomic species (ntypx) = 10
     Max number of k-points (npk) =  40000
     Max angular momentum in pseudopotentials (lmaxx) =  3

     Subspace diagonalization in iterative solution of the eigenvalue problem:
     a serial algorithm will be used

     Message from routine find_sym:
     Not a group! Trying with lower acceptance parameter...
     Message from routine find_sym:
     Symmetry operations form a group

     bravais-lattice index     =            4
     lattice parameter (alat)  =      16.8405  a.u.
     unit-cell volume          =    9282.5779 (a.u.)^3
     number of atoms/cell      =            7
     number of atomic types    =            1
     number of electrons       =        21.00
     number of Kohn-Sham states=           15
     kinetic-energy cutoff     =      80.0000  Ry
     charge density cutoff     =     320.0000  Ry
     convergence threshold     =      1.0E-06
     mixing beta               =       0.4000
     number of iterations used =            8  plain     mixing
     Exchange-correlation      = PBE ( 1  4  3  4 0 0)
     nstep                     =          300

     celldm(1)=  16.840483  celldm(2)=   0.000000  celldm(3)=   2.244266
     celldm(4)=   0.000000  celldm(5)=   0.000000  celldm(6)=   0.000000

     crystal axes: (cart. coord. in units of alat)
               a(1) = (   1.000000   0.000000   0.000000 )
               a(2) = (  -0.500000   0.866025   0.000000 )
               a(3) = (   0.000000   0.000000   2.244266 )

     reciprocal axes: (cart. coord. in units 2 pi/alat)
               b(1) = (  1.000000  0.577350  0.000000 )
               b(2) = (  0.000000  1.154701  0.000000 )
               b(3) = (  0.000000  0.000000  0.445580 )

     PseudoPot. # 1 for Al read from file:
     ./Al.upf
     MD5 check sum: 4974d48a734c9d7d1eb6780a1419d19d
     Pseudo is Norm-conserving + core correction, Zval =  3.0
     Generated using ONCVPSP code by D. R. Hamann
     Using radial grid of 1876 points,  6 beta functions with:
                l(1) =   0
                l(2) =   0
                l(3) =   1
                l(4) =   1
                l(5) =   2
                l(6) =   2

     atomic species   valence    mass     pseudopotential
        Al             3.00    29.98200     Al( 1.00)

      4 Sym. Ops. (no inversion) found ( 2 have fractional translation)

   Cartesian axes

     site n.     atom                  positions (alat units)
         1           Al  tau(   1) = (   0.0000001   0.2886786   0.0000000  )
         2           Al  tau(   2) = (   0.5000023   0.2886806   0.0000000  )
         3           Al  tau(   3) = (   0.7500053   0.1443413   0.0000000  )
         4           Al  tau(   4) = (  -0.2499995   0.7216943   0.0000000  )
         5           Al  tau(   5) = (   0.0000036   0.5773550   0.0000000  )
         6           Al  tau(   6) = (   0.2500029   0.7216963   0.0000000  )
         7           Al  tau(   7) = (   0.5000059   0.5773570   0.0000000  )

     number of k points=     1  Methfessel-Paxton smearing, width (Ry)=  0.0500
                       cart. coord. in units 2pi/alat
        k(    1) = (   0.0000000   0.0000000   0.0000000), wk =   2.0000000

     Initial potential from superposition of free atoms

     starting charge   20.98287, renormalised to   21.00000

     negative rho (up, down):  2.280E-05 0.000E+00
     Starting wfcs are   28 randomized atomic wfcs

     Self-consistent Calculation

     iteration #  1     ecut=    80.00 Ry     beta= 0.40
     Davidson diagonalization with overlap
     ethr =  1.00E-02,  avg # of iterations =  2.0

     total energy              =     -31.66571702 Ry
     Harris-Foulkes estimate   =     -31.75213462 Ry
     estimated scf accuracy    <       0.28955142 Ry

[...]

     negative rho (up, down):  1.274E-07 0.000E+00

[...]

     End of self-consistent calculation

          k = 0.0000 0.0000 0.0000 (111965 PWs)   bands (ev):

    -9.6450  -8.0769  -8.0764  -7.5197  -6.5556  -6.5552  -4.1825  -3.7989
    -3.2627  -2.8072  -2.8070  -2.2405  -2.2402  -1.7266  -0.8758

     the Fermi energy is    -2.6601 ev

!    total energy              =     -31.67665094 Ry
     Harris-Foulkes estimate   =     -31.67665146 Ry
     estimated scf accuracy    <       0.00000089 Ry

     The total energy is the sum of the following terms:

     one-electron contribution =    -103.79141103 Ry
     hartree contribution      =      53.98852040 Ry
     xc contribution           =     -13.76104468 Ry
     ewald contribution        =      31.90171728 Ry
     smearing contrib. (-TS)   =      -0.01443291 Ry

     convergence has been achieved in  10 iterations

[...]

     Forces acting on atoms (cartesian axes, Ry/au):

     atom    1 type  1   force =     0.00934836   -0.00537145    0.00000000
     atom    2 type  1   force =    -0.00934171   -0.00539344    0.00000000
     atom    3 type  1   force =    -0.00000716   -0.00268193    0.00000000
     atom    4 type  1   force =     0.00002237    0.01078165    0.00000000
     atom    5 type  1   force =     0.00229985    0.00132782    0.00000000
     atom    6 type  1   force =     0.00000448    0.00000259    0.00000000
     atom    7 type  1   force =    -0.00232620    0.00133477    0.00000000

     Total force =     0.019243     Total SCF correction =     0.000738

     Computing stress (Cartesian axis) and pressure

     negative rho (up, down):  8.462E-06 0.000E+00
          total   stress  (Ry/bohr**3)                   (kbar)     P=   -1.45
  -0.00001476  -0.00000001   0.00000000         -2.17     -0.00      0.00
  -0.00000001  -0.00001474   0.00000000         -0.00     -2.17      0.00
   0.00000000   0.00000000  -0.00000008          0.00      0.00     -0.01

     BFGS Geometry Optimization

     number of scf cycles    =   1
     number of bfgs steps    =   0

     enthalpy new            =     -31.6766509391 Ry

     new trust radius        =       0.0107868819 bohr
     new conv_thr            =       0.0000010000 Ry

     new unit-cell volume =   9275.73385 a.u.^3 (  1374.52193 Ang^3 )
     density =      0.25355 g/cm^3

CELL_PARAMETERS (alat= 16.84048341)
   0.999631108  -0.000000298   0.000000000
  -0.499815812   0.865706381   0.000000000
   0.000000000   0.000000000   2.244265901

ATOMIC_POSITIONS (angstrom)
Al       0.004944936   2.568798344   0.000000000
Al       4.449234130   2.568803577   0.000000000
Al       6.681277789   1.284416872   0.000000000
Al      -2.227063463   6.434784641   0.000000000
Al       0.001247132   5.143962688   0.000000000
Al       2.227104160   6.429099572   0.000000000
Al       4.452977118   5.143983225   0.000000000

     Writing output data file 2al_planar_2x2_vcr.save/
     NEW-OLD atomic charge density approx. for the potential

     negative rho (up, down):  8.469E-06 0.000E+00
     extrapolated charge   20.98452, renormalised to   21.00000

[...]

     enthalpy old            =     -31.6766509391 Ry
     enthalpy new            =     -31.6771123177 Ry

     CASE: enthalpy_new < enthalpy_old

     WARNING: bfgs curvature condition failed, Theta= 0.837
     new trust radius        =       0.0161743513 bohr
     new conv_thr            =       0.0000004614 Ry

[...]

     WARNING: bfgs curvature condition failed, Theta= 0.163
     new trust radius        =       0.5381717640 bohr
     new conv_thr            =       0.0000010000 Ry

[...]

     iteration #  1     ecut=    80.00 Ry     beta= 0.40
     Davidson diagonalization with overlap
     c_bands:  1 eigenvalues not converged
     ethr =  1.00E-06,  avg # of iterations = 20.0

[...]

     CASE: enthalpy_new > enthalpy_old

[...]

     CASE: enthalpy_new < enthalpy_old

[...]

     new trust radius        =       0.0000050693 bohr

     trust_radius < trust_radius_min

     resetting bfgs history

     new conv_thr            =       0.0000009503 Ry

[...]

     Threshold (ethr) on eigenvalues was too large:
     Diagonalizing with lowered threshold

     Davidson diagonalization with overlap
     ethr =  1.09E-08,  avg # of iterations =  5.0

[...]

     Threshold (ethr) on eigenvalues was too large:
     Diagonalizing with lowered threshold

     Davidson diagonalization with overlap
     ethr =  9.59E-09,  avg # of iterations =  5.0

[...]

     new trust radius        =       0.0000006770 bohr

     trust_radius < trust_radius_min

     resetting bfgs history

     new conv_thr            =       0.0000009503 Ry

[...]

     Self-consistent Calculation

[...]

     total energy              =     -31.73519060 Ry
     Harris-Foulkes estimate   =     -31.73519337 Ry
     estimated scf accuracy    <       0.00000710 Ry

     iteration #  5     ecut=    80.00 Ry     beta= 0.40
     Davidson diagonalization with overlap
     ethr =  3.38E-08,  avg # of iterations =  2.0

[...]

     End of self-consistent calculation

          k = 0.0000 0.0000 0.0000 (111965 PWs)   bands (ev):

   -10.5909  -8.0250  -8.0129  -7.9334  -7.0743  -6.8563  -6.8466  -4.3264
    -2.1300  -2.0028  -1.9992  -1.8646  -1.8562  -1.7830  -0.9913

     the Fermi energy is    -2.0054 ev

!    total energy              =     -31.73519210 Ry
     Harris-Foulkes estimate   =     -31.73519230 Ry
     estimated scf accuracy    <       0.00000033 Ry

     The total energy is the sum of the following terms:

     one-electron contribution =    -129.52866455 Ry
     hartree contribution      =      66.80236358 Ry
     xc contribution           =     -13.96745233 Ry
     ewald contribution        =      45.02869098 Ry
     smearing contrib. (-TS)   =      -0.07012978 Ry

     convergence has been achieved in   5 iterations

     negative rho (up, down):  5.221E-06 0.000E+00

     Forces acting on atoms (cartesian axes, Ry/au):

     atom    1 type  1   force =    -0.00148354    0.00202039    0.00000000
     atom    2 type  1   force =     0.00190481    0.00109974    0.00000000
     atom    3 type  1   force =    -0.00071063   -0.01042983    0.00000000
     atom    4 type  1   force =     0.00100794   -0.00229498    0.00000000
     atom    5 type  1   force =     0.00861090    0.00497151    0.00000000
     atom    6 type  1   force =     0.00005833    0.00003368    0.00000000
     atom    7 type  1   force =    -0.00938781    0.00459949    0.00000000

     Total force =     0.018299     Total SCF correction =     0.000114

     Computing stress (Cartesian axis) and pressure

     negative rho (up, down):  5.221E-06 0.000E+00
          total   stress  (Ry/bohr**3)                   (kbar)     P=   -1.49
  -0.00001586  -0.00000098   0.00000000         -2.33     -0.14      0.00
  -0.00000098  -0.00001473   0.00000000         -0.14     -2.17      0.00
  -0.00000000  -0.00000000   0.00000027         -0.00     -0.00      0.04

     number of scf cycles    = 300
     number of bfgs steps    =  19

     enthalpy old            =     -31.7355242315 Ry
     enthalpy new            =     -31.7351921044 Ry

     CASE: enthalpy_new > enthalpy_old

     new trust radius        =       0.0024861982 bohr
     new conv_thr            =       0.0000009503 Ry

     new unit-cell volume =   7199.49460 a.u.^3 (  1066.85502 Ang^3 )
     density =      0.32666 g/cm^3

CELL_PARAMETERS (alat= 16.84048341)
   0.880450360  -0.000392926   0.000000000
  -0.440565464   0.763081768   0.000000000
   0.000000000   0.000000000   2.244265901

ATOMIC_POSITIONS (angstrom)
Al       0.567835465   1.933670180   0.000000000
Al       3.352645615   1.935683510   0.000000000
Al       5.885857658   1.460566842   0.000000000
Al      -1.967637331   6.325268127   0.000000000
Al      -0.287622787   4.367481126   0.000000000
Al       1.960528645   5.665485218   0.000000000
Al       4.207817318   4.367049999   0.000000000

     Writing output data file 2al_planar_2x2_vcr.save/
     NEW-OLD atomic charge density approx. for the potential

     negative rho (up, down):  5.241E-06 0.000E+00
     extrapolated charge   21.01250, renormalised to   21.00000

     Writing output data file 2al_planar_2x2_vcr.save/

     General routines

     Parallel routines

      48h

   This run was terminated on:  13: 1:10  25Nov2020

   JOB DONE.