     Program PWSCF v.6.3MaX starts on 25Nov2020 at 11:12:51

     R & G space division:  proc/nbgrp/npool/nimage =       8
     Waiting for input...
     Reading input from standard input

     Current dimensions of program PWSCF are:
     Max number of different atomic species (ntypx) = 10
     Max number of k-points (npk) =  40000
     Max angular momentum in pseudopotentials (lmaxx) =  3

     Subspace diagonalization in iterative solution of the eigenvalue problem:
     a serial algorithm will be used

     Message from routine find_sym:
     Not a group! Trying with lower acceptance parameter...
     Message from routine find_sym:
     Symmetry operations form a group

     bravais-lattice index     =            4
     lattice parameter (alat)  =      16.8405  a.u.
     unit-cell volume          =    9282.5779 (a.u.)^3
     number of atoms/cell      =            7
     number of atomic types    =            1
     number of electrons       =        21.00
     number of Kohn-Sham states=           15
     kinetic-energy cutoff     =      80.0000  Ry
     charge density cutoff     =     320.0000  Ry
     convergence threshold     =      1.0E-06
     mixing beta               =       0.4000
     number of iterations used =            8  plain     mixing
     Exchange-correlation      = PBE ( 1  4  3  4 0 0)
     nstep                     =          300

     celldm(1)=  16.840483  celldm(2)=   0.000000  celldm(3)=   2.244266
     celldm(4)=   0.000000  celldm(5)=   0.000000  celldm(6)=   0.000000

     crystal axes: (cart. coord. in units of alat)
               a(1) = (   1.000000   0.000000   0.000000 )
               a(2) = (  -0.500000   0.866025   0.000000 )
               a(3) = (   0.000000   0.000000   2.244266 )

     reciprocal axes: (cart. coord. in units 2 pi/alat)
               b(1) = (  1.000000  0.577350  0.000000 )
               b(2) = (  0.000000  1.154701  0.000000 )
               b(3) = (  0.000000  0.000000  0.445580 )

     PseudoPot. # 1 for Al read from file:
     ./Al.upf
     MD5 check sum: 4974d48a734c9d7d1eb6780a1419d19d
     Pseudo is Norm-conserving + core correction, Zval =  3.0
     Generated using ONCVPSP code by D. R. Hamann
     Using radial grid of 1876 points,  6 beta functions with:
                l(1) =   0
                l(2) =   0
                l(3) =   1
                l(4) =   1
                l(5) =   2
                l(6) =   2

     atomic species   valence    mass     pseudopotential
        Al             3.00    29.98200     Al( 1.00)

      4 Sym. Ops. (no inversion) found ( 2 have fractional translation)

   Cartesian axes

     site n.     atom                  positions (alat units)
         1           Al  tau(   1) = (   0.2500030   0.1443392   0.0000000  )
         2           Al  tau(   2) = (   0.5000023   0.2886806   0.0000000  )
         3           Al  tau(   3) = (   0.7500053   0.1443413   0.0000000  )
         4           Al  tau(   4) = (  -0.2499995   0.7216943   0.0000000  )
         5           Al  tau(   5) = (   0.0000036   0.5773550   0.0000000  )
         6           Al  tau(   6) = (   0.2500029   0.7216963   0.0000000  )
         7           Al  tau(   7) = (   0.5000059   0.5773570   0.0000000  )

     number of k points=     1  Methfessel-Paxton smearing, width (Ry)=  0.0500
                       cart. coord. in units 2pi/alat
        k(    1) = (   0.0000000   0.0000000   0.0000000), wk =   2.0000000

     Initial potential from superposition of free atoms

     starting charge   20.98287, renormalised to   21.00000

     negative rho (up, down):  2.280E-05 0.000E+00
     Starting wfcs are   28 randomized atomic wfcs

     Self-consistent Calculation

     iteration #  1     ecut=    80.00 Ry     beta= 0.40
     Davidson diagonalization with overlap
     ethr =  1.00E-02,  avg # of iterations =  2.0

     total energy              =     -31.66578490 Ry
     Harris-Foulkes estimate   =     -31.75225228 Ry
     estimated scf accuracy    <       0.28965253 Ry

[...]

     negative rho (up, down):  3.206E-07 0.000E+00

[...]

     End of self-consistent calculation

          k = 0.0000 0.0000 0.0000 (111965 PWs)   bands (ev):

    -9.6451  -8.0765  -8.0762  -7.5202  -6.5557  -6.5555  -4.1829  -3.7989
    -3.2626  -2.8075  -2.8073  -2.2401  -2.2400  -1.7270  -0.8759

     the Fermi energy is    -2.6602 ev

!    total energy              =     -31.67665136 Ry
     Harris-Foulkes estimate   =     -31.67665136 Ry
     estimated scf accuracy    <       0.00000008 Ry

     The total energy is the sum of the following terms:

     one-electron contribution =    -103.79203719 Ry
     hartree contribution      =      53.98922570 Ry
     xc contribution           =     -13.76116582 Ry
     ewald contribution        =      31.90171854 Ry
     smearing contrib. (-TS)   =      -0.01439258 Ry

     convergence has been achieved in  11 iterations

[...]

     Forces acting on atoms (cartesian axes, Ry/au):

     atom    1 type  1   force =    -0.00932072    0.00540825    0.00000000
     atom    2 type  1   force =     0.00000000    0.00273298    0.00000000
     atom    3 type  1   force =     0.00932072    0.00540825    0.00000000
     atom    4 type  1   force =    -0.00235579   -0.00138877    0.00000000
     atom    5 type  1   force =     0.00000000   -0.01076842    0.00000000
     atom    6 type  1   force =     0.00235579   -0.00138877    0.00000000
     atom    7 type  1   force =     0.00000000   -0.00000351    0.00000000

     Total force =     0.019252     Total SCF correction =     0.000163

     Computing stress (Cartesian axis) and pressure

     negative rho (up, down):  9.056E-06 0.000E+00
          total   stress  (Ry/bohr**3)                   (kbar)     P=   -1.45
  -0.00001476   0.00000000   0.00000000         -2.17      0.00      0.00
   0.00000000  -0.00001476  -0.00000000          0.00     -2.17     -0.00
   0.00000000   0.00000000  -0.00000004          0.00      0.00     -0.01

     BFGS Geometry Optimization

     number of scf cycles    =   1
     number of bfgs steps    =   0

     enthalpy new            =     -31.6766513634 Ry

     new trust radius        =       0.0107761252 bohr
     new conv_thr            =       0.0000010000 Ry

     new unit-cell volume =   9275.72989 a.u.^3 (  1374.52134 Ang^3 )
     density =      0.25355 g/cm^3

CELL_PARAMETERS (alat= 16.84048341)
   0.999631015   0.000000000   0.000000000
  -0.499815508   0.865705943   0.000000000
   0.000000000   0.000000000   2.244265901

ATOMIC_POSITIONS (angstrom)
Al       2.222174179   1.288679804   0.000000000
Al       4.454176081   2.573102776   0.000000000
Al       6.686211826   1.288697993   0.000000000
Al      -2.228319340   6.428343899   0.000000000
Al       0.000032087   5.137562279   0.000000000
Al       2.228349670   6.428362088   0.000000000
Al       4.454208754   5.143274913   0.000000000

     Writing output data file 1al_planar_2x2_vcr.save/
     NEW-OLD atomic charge density approx. for the potential

     negative rho (up, down):  9.063E-06 0.000E+00
     extrapolated charge   20.98451, renormalised to   21.00000

[...]

     enthalpy old            =     -31.6766513634 Ry
     enthalpy new            =     -31.6771123737 Ry

     CASE: enthalpy_new < enthalpy_old

     WARNING: bfgs curvature condition failed, Theta= 0.839
     new trust radius        =       0.0161582239 bohr
     new conv_thr            =       0.0000004610 Ry

[...]

     iteration #  1     ecut=    80.00 Ry     beta= 0.40
     Davidson diagonalization with overlap
     c_bands:  1 eigenvalues not converged
     ethr =  1.00E-06,  avg # of iterations = 20.0

[...]

     CASE: enthalpy_new > enthalpy_old

[...]

     WARNING: bfgs curvature condition failed, Theta= 0.927
     new trust radius        =       0.0612432373 bohr
     new conv_thr            =       0.0000010000 Ry

[...]

     Total force =     0.001755     Total SCF correction =     0.000198
     SCF correction compared to forces is large: reduce conv_thr to get better values

[...]

     CASE: enthalpy_new < enthalpy_old

[...]

     new trust radius        =       0.0019134724 bohr
     new conv_thr            =       0.0000000945 Ry

[...]

     new trust radius        =       0.0000098462 bohr

     trust_radius < trust_radius_min

     resetting bfgs history

     new conv_thr            =       0.0000000945 Ry

[...]

     negative rho (up, down):  5.610E-06 0.000E+00
     extrapolated charge   20.99704, renormalised to   21.00000

[...]

     Threshold (ethr) on eigenvalues was too large:
     Diagonalizing with lowered threshold

     Davidson diagonalization with overlap
     ethr =  4.27E-09,  avg # of iterations =  5.0

[...]

     number of scf cycles    =  27
     number of bfgs steps    =  23

     enthalpy old            =     -31.7372101040 Ry
     enthalpy new            =     -31.7367197499 Ry

     CASE: enthalpy_new > enthalpy_old

     new trust radius        =       0.0000085994 bohr

     trust_radius < trust_radius_min

     resetting bfgs history

     Message from routine bfgs:
     history already reset at previous step: stopping
     new conv_thr            =       0.0000000945 Ry

     new unit-cell volume =   7078.15145 a.u.^3 (  1048.87382 Ang^3 )
     density =      0.33226 g/cm^3

[...]

ATOMIC_POSITIONS (angstrom)
Al       1.372282917   1.454540080   0.000000000
Al       3.893540553   1.942455722   0.000000000
Al       6.414827773   1.454555958   0.000000000
Al      -1.684427779   5.762068610   0.000000000
Al       0.000028048   3.827231146   0.000000000
Al       1.684454291   5.762084488   0.000000000
Al       3.893569113   4.491382451   0.000000000

     Writing output data file 1al_planar_2x2_vcr.save/
     NEW-OLD atomic charge density approx. for the potential

[...]

     Threshold (ethr) on eigenvalues was too large:
     Diagonalizing with lowered threshold

     Davidson diagonalization with overlap
     ethr =  6.41E-10,  avg # of iterations =  4.0

[...]

          k = 0.0000 0.0000 0.0000 (111965 PWs)   bands (ev):

[...]

     bfgs converged in  28 scf cycles and  23 bfgs steps
     (criteria: energy <  1.0E-05 Ry, force <  1.0E-04Ry/Bohr, cell <  5.0E-05kbar)

     End of BFGS Geometry Optimization

     Final enthalpy =     -31.7367197686 Ry
Begin final coordinates
     new unit-cell volume =   7078.15145 a.u.^3 (  1048.87382 Ang^3 )
     density =      0.33226 g/cm^3

CELL_PARAMETERS (alat= 16.84048341)
   0.873810066   0.000000000   0.000000000
  -0.436905033   0.755726821   0.000000000
   0.000000000   0.000000000   2.244265901

ATOMIC_POSITIONS (angstrom)
Al       1.372282917   1.454540080   0.000000000
Al       3.893540553   1.942455722   0.000000000
Al       6.414827773   1.454555958   0.000000000
Al      -1.684427779   5.762068610   0.000000000
Al       0.000028048   3.827231146   0.000000000
Al       1.684454291   5.762084488   0.000000000
Al       3.893569113   4.491382451   0.000000000
End final coordinates

     Writing output data file 1al_planar_2x2_vcr.save/

     A final scf calculation at the relaxed structure.
     The G-vectors are recalculated for the final unit cell
     Results may differ from those at the preceding step.

     bravais-lattice index     =            4
     lattice parameter (alat)  =      16.8405  a.u.
     unit-cell volume          =    7078.1515 (a.u.)^3
     number of atoms/cell      =            7
     number of atomic types    =            1
     number of electrons       =        21.00
     number of Kohn-Sham states=           15
     kinetic-energy cutoff     =      80.0000  Ry
     charge density cutoff     =     320.0000  Ry
     convergence threshold     =      9.5E-08
     mixing beta               =       0.4000
     number of iterations used =            8  plain     mixing
     Exchange-correlation      = PBE ( 1  4  3  4 0 0)

     celldm(1)=  16.840483  celldm(2)=   0.000000  celldm(3)=   2.244266
     celldm(4)=   0.000000  celldm(5)=   0.000000  celldm(6)=   0.000000

     crystal axes: (cart. coord. in units of alat)
               a(1) = (   0.873810   0.000000   0.000000 )
               a(2) = (  -0.436905   0.755727   0.000000 )
               a(3) = (   0.000000   0.000000   2.244266 )

     reciprocal axes: (cart. coord. in units 2 pi/alat)
               b(1) = (  1.144413  0.661615  0.000000 )
               b(2) = ( -0.000000  1.323229  0.000000 )
               b(3) = (  0.000000  0.000000  0.445580 )

     PseudoPot. # 1 for Al read from file:
     ./Al.upf
     MD5 check sum: 4974d48a734c9d7d1eb6780a1419d19d
     Pseudo is Norm-conserving + core correction, Zval =  3.0
     Generated using ONCVPSP code by D. R. Hamann
     Using radial grid of 1876 points,  6 beta functions with:
                l(1) =   0
                l(2) =   0
                l(3) =   1
                l(4) =   1
                l(5) =   2
                l(6) =   2

     atomic species   valence    mass     pseudopotential
        Al             3.00    29.98200     Al( 1.00)

      4 Sym. Ops. (no inversion) found ( 2 have fractional translation)

   Cartesian axes

     site n.     atom                  positions (alat units)
         1           Al  tau(   1) = (   0.1539884   0.1632187   0.0000000  )
         2           Al  tau(   2) = (   0.4369070   0.2179694   0.0000000  )
         3           Al  tau(   3) = (   0.7198290   0.1632205   0.0000000  )
         4           Al  tau(   4) = (  -0.1890152   0.6465807   0.0000000  )
         5           Al  tau(   5) = (   0.0000031   0.4294662   0.0000000  )
         6           Al  tau(   6) = (   0.1890182   0.6465825   0.0000000  )
         7           Al  tau(   7) = (   0.4369102   0.5039928   0.0000000  )

     number of k points=     1  Methfessel-Paxton smearing, width (Ry)=  0.0500
                       cart. coord. in units 2pi/alat
        k(    1) = (   0.0000000   0.0000000   0.0000000), wk =   2.0000000

     Initial potential from superposition of free atoms

     starting charge   20.98287, renormalised to   21.00000

     negative rho (up, down):  1.841E-05 0.000E+00
     Starting wfcs are   28 randomized atomic wfcs

     Self-consistent Calculation

     iteration #  1     ecut=    80.00 Ry     beta= 0.40
     Davidson diagonalization with overlap
     c_bands:  1 eigenvalues not converged
     ethr =  1.00E-06,  avg # of iterations = 20.0

[...]

     total energy              =     -31.73668503 Ry
     Harris-Foulkes estimate   =     -31.73668508 Ry
     estimated scf accuracy    <       0.00000015 Ry

     iteration # 11     ecut=    80.00 Ry     beta= 0.40
     Davidson diagonalization with overlap
     ethr =  7.18E-10,  avg # of iterations =  5.0

[...]

     End of self-consistent calculation

          k = 0.0000 0.0000 0.0000 ( 85451 PWs)   bands (ev):

   -10.6628  -8.0150  -8.0125  -8.0039  -7.0635  -6.9064  -6.9026  -4.3645
    -2.0946  -1.9803  -1.9709  -1.8376  -1.8343  -1.8007  -0.9091

     the Fermi energy is    -1.9858 ev

!    total energy              =     -31.73668501 Ry
     Harris-Foulkes estimate   =     -31.73668506 Ry
     estimated scf accuracy    <       0.00000007 Ry

     The total energy is the sum of the following terms:

     one-electron contribution =    -131.72492978 Ry
     hartree contribution      =      67.91775993 Ry
     xc contribution           =     -14.02111099 Ry
     ewald contribution        =      46.16363015 Ry
     smearing contrib. (-TS)   =      -0.07203432 Ry

     convergence has been achieved in  11 iterations

     negative rho (up, down):  5.603E-06 0.000E+00

     Forces acting on atoms (cartesian axes, Ry/au):

     atom    1 type  1   force =     0.00203376   -0.00084865    0.00000000
     atom    2 type  1   force =    -0.00000000    0.00174796    0.00000000
     atom    3 type  1   force =    -0.00203376   -0.00084865    0.00000000
     atom    4 type  1   force =    -0.00231550   -0.00096648    0.00000000
     atom    5 type  1   force =    -0.00000000    0.00134099    0.00000000
     atom    6 type  1   force =     0.00231550   -0.00096648    0.00000000
     atom    7 type  1   force =    -0.00000000    0.00054131    0.00000000

     Total force =     0.005239     Total SCF correction =     0.000169

     Computing stress (Cartesian axis) and pressure

     negative rho (up, down):  5.603E-06 0.000E+00
          total   stress  (Ry/bohr**3)                   (kbar)     P=    0.10
   0.00000348   0.00000000   0.00000000          0.51      0.00      0.00
   0.00000000  -0.00000148   0.00000000          0.00     -0.22      0.00
   0.00000000   0.00000000  -0.00000001          0.00      0.00     -0.00

     Writing output data file 1al_planar_2x2_vcr.save/

     General routines

     Parallel routines

   This run was terminated on:  11:24:49  25Nov2020

   JOB DONE.