     Program PWSCF v.6.3MaX starts on 25Nov2020 at 11:14: 4

     R & G space division:  proc/nbgrp/npool/nimage =       8
     Waiting for input...
     Reading input from standard input

     Current dimensions of program PWSCF are:
     Max number of different atomic species (ntypx) = 10
     Max number of k-points (npk) =  40000
     Max angular momentum in pseudopotentials (lmaxx) =  3

     Subspace diagonalization in iterative solution of the eigenvalue problem:
     a serial algorithm will be used

     Message from routine find_sym:
     Not a group! Trying with lower acceptance parameter...
     Message from routine find_sym:
     Symmetry operations form a group

     bravais-lattice index     =            4
     lattice parameter (alat)  =      16.8405  a.u.
     unit-cell volume          =    9282.5779 (a.u.)^3
     number of atoms/cell      =            7
     number of atomic types    =            1
     number of electrons       =        21.00
     number of Kohn-Sham states=           15
     kinetic-energy cutoff     =      80.0000  Ry
     charge density cutoff     =     320.0000  Ry
     convergence threshold     =      1.0E-06
     mixing beta               =       0.4000
     number of iterations used =            8  plain     mixing
     Exchange-correlation      = PBE ( 1  4  3  4 0 0)
     nstep                     =          300

     celldm(1)=  16.840483  celldm(2)=   0.000000  celldm(3)=   2.244266
     celldm(4)=   0.000000  celldm(5)=   0.000000  celldm(6)=   0.000000

     crystal axes: (cart. coord. in units of alat)
               a(1) = (   1.000000   0.000000   0.000000 )
               a(2) = (  -0.500000   0.866025   0.000000 )
               a(3) = (   0.000000   0.000000   2.244266 )

     reciprocal axes: (cart. coord. in units 2 pi/alat)
               b(1) = (  1.000000  0.577350  0.000000 )
               b(2) = (  0.000000  1.154701  0.000000 )
               b(3) = (  0.000000  0.000000  0.445580 )

     PseudoPot. # 1 for Al read from file:
     ./Al.upf
     MD5 check sum: 4974d48a734c9d7d1eb6780a1419d19d
     Pseudo is Norm-conserving + core correction, Zval =  3.0
     Generated using ONCVPSP code by D. R. Hamann
     Using radial grid of 1876 points,  6 beta functions with:
                l(1) =   0
                l(2) =   0
                l(3) =   1
                l(4) =   1
                l(5) =   2
                l(6) =   2

     atomic species   valence    mass     pseudopotential
        Al             3.00    29.98200     Al( 1.00)

      2 Sym. Ops. (no inversion) found

   Cartesian axes

     site n.     atom                  positions (alat units)
         1           Al  tau(   1) = (   0.0000001   0.2886786   0.0000000  )
         2           Al  tau(   2) = (   0.2500030   0.1443392   0.0000000  )
         3           Al  tau(   3) = (   0.5000023   0.2886806   0.0000000  )
         4           Al  tau(   4) = (  -0.2499995   0.7216943   0.0000000  )
         5           Al  tau(   5) = (   0.0000036   0.5773550   0.0000000  )
         6           Al  tau(   6) = (   0.2500029   0.7216963   0.0000000  )
         7           Al  tau(   7) = (   0.5000059   0.5773570   0.0000000  )

     number of k points=     1  Methfessel-Paxton smearing, width (Ry)=  0.0500
                       cart. coord. in units 2pi/alat
        k(    1) = (   0.0000000   0.0000000   0.0000000), wk =   2.0000000

     Initial potential from superposition of free atoms

     starting charge   20.98287, renormalised to   21.00000

     negative rho (up, down):  2.280E-05 0.000E+00
     Starting wfcs are   28 randomized atomic wfcs

     Self-consistent Calculation

     iteration #  1     ecut=    80.00 Ry     beta= 0.40
     Davidson diagonalization with overlap
     ethr =  1.00E-02,  avg # of iterations =  2.0

     total energy              =     -31.66590928 Ry
     Harris-Foulkes estimate   =     -31.75250681 Ry
     estimated scf accuracy    <       0.28995678 Ry

[...]

     End of self-consistent calculation

          k = 0.0000 0.0000 0.0000 (111965 PWs)   bands (ev):

    -9.6455  -8.0770  -8.0768  -7.5206  -6.5558  -6.5557  -4.1827  -3.7992
    -3.2630  -2.8080  -2.8077  -2.2405  -2.2404  -1.7272  -0.8760

     the Fermi energy is    -2.6606 ev

!    total energy              =     -31.67665257 Ry
     Harris-Foulkes estimate   =     -31.67665281 Ry
     estimated scf accuracy    <       0.00000033 Ry

     The total energy is the sum of the following terms:

     one-electron contribution =    -103.79291946 Ry
     hartree contribution      =      53.99035431 Ry
     xc contribution           =     -13.76135165 Ry
     ewald contribution        =      31.90165254 Ry
     smearing contrib. (-TS)   =      -0.01438831 Ry

     convergence has been achieved in  11 iterations

     Forces acting on atoms (cartesian axes, Ry/au):

     atom    1 type  1   force =    -0.00931611   -0.00539069    0.00000000
     atom    2 type  1   force =    -0.00002759   -0.00270938    0.00000000
     atom    3 type  1   force =     0.00933732   -0.00536170    0.00000000
     atom    4 type  1   force =    -0.00000244   -0.00003065    0.00000000
     atom    5 type  1   force =    -0.00237116    0.00136780    0.00000000
     atom    6 type  1   force =     0.00004576    0.01074851    0.00000000
     atom    7 type  1   force =     0.00233423    0.00137611    0.00000000

     Total force =     0.019222     Total SCF correction =     0.000453

     Computing stress (Cartesian axis) and pressure

          total   stress  (Ry/bohr**3)                   (kbar)     P=   -1.45
  -0.00001476   0.00000001   0.00000000         -2.17      0.00      0.00
   0.00000001  -0.00001475   0.00000000          0.00     -2.17      0.00
   0.00000000   0.00000000   0.00000002          0.00      0.00      0.00

     BFGS Geometry Optimization

     number of scf cycles    =   1
     number of bfgs steps    =   0

     enthalpy new            =     -31.6766525655 Ry

     new trust radius        =       0.0107672340 bohr
     new conv_thr            =       0.0000010000 Ry

     new unit-cell volume =   9275.73157 a.u.^3 (  1374.52159 Ang^3 )
     density =      0.25355 g/cm^3

CELL_PARAMETERS (alat= 16.84048341)
   0.999631042   0.000000163   0.000000000
  -0.499815380   0.865705995   0.000000000
   0.000000000   0.000000000   2.244265901

ATOMIC_POSITIONS (angstrom)
Al      -0.004927051   2.568787709   0.000000000
Al       2.227090344   1.284386287   0.000000000
Al       4.459115891   2.568821958   0.000000000
Al      -2.227073470   6.429062943   0.000000000
Al      -0.001221377   5.143982913   0.000000000
Al       2.227128816   6.434783839   0.000000000
Al       4.455444476   5.144006222   0.000000000

     Writing output data file 4al_planar_2x2_vcr.save/
     NEW-OLD atomic charge density approx. for the potential

     negative rho (up, down):  1.028E-07 0.000E+00
     extrapolated charge   20.98451, renormalised to   21.00000

[...]

     negative rho (up, down):  5.106E-08 0.000E+00

[...]

     enthalpy old            =     -31.6766525655 Ry
     enthalpy new            =     -31.6771130587 Ry

     CASE: enthalpy_new < enthalpy_old

     WARNING: bfgs curvature condition failed, Theta= 0.838
     new trust radius        =       0.0161448907 bohr
     new conv_thr            =       0.0000004605 Ry

[...]

     iteration #  1     ecut=    80.00 Ry     beta= 0.40
     Davidson diagonalization with overlap
     c_bands:  1 eigenvalues not converged
     ethr =  1.00E-06,  avg # of iterations = 20.0

[...]

     CASE: enthalpy_new > enthalpy_old

[...]

     Total force =     0.001304     Total SCF correction =     0.000468
     SCF correction compared to forces is large: reduce conv_thr to get better values

[...]

     Threshold (ethr) on eigenvalues was too large:
     Diagonalizing with lowered threshold

     Davidson diagonalization with overlap
     ethr =  6.38E-08,  avg # of iterations =  5.0

[...]

     WARNING: bfgs curvature condition failed, Theta= 0.225
     new trust radius        =       0.0272762626 bohr
     new conv_thr            =       0.0000000190 Ry

[...]

     negative rho (up, down):  4.266E-08 0.000E+00
          total   stress  (Ry/bohr**3)                   (kbar)     P=    1.91
   0.00002258   0.00000244   0.00000000          3.32      0.36      0.00
   0.00000244   0.00001653   0.00000000          0.36      2.43      0.00
   0.00000000   0.00000000  -0.00000009          0.00      0.00     -0.01

[...]

     iteration #  1     ecut=    80.00 Ry     beta= 0.40
     Davidson diagonalization with overlap
     c_bands:  1 eigenvalues not converged
     ethr =  1.00E-06,  avg # of iterations = 20.0

[...]

     Total force =     0.000931     Total SCF correction =     0.000026

[...]

     negative rho (up, down):  9.184E-08 0.000E+00
     extrapolated charge   21.00004, renormalised to   21.00000

[...]

     CASE: enthalpy_new < enthalpy_old

     small trust_radius: resetting bfgs history

     new trust radius        =       0.0000052209 bohr
     new conv_thr            =       0.0000000100 Ry

[...]

     number of scf cycles    = 126
     number of bfgs steps    = 124

     enthalpy old            =     -32.2508079646 Ry
     enthalpy new            =     -32.2508079641 Ry

     CASE: enthalpy_new > enthalpy_old

     new trust radius        =       0.0000002700 bohr

     trust_radius < trust_radius_min

     resetting bfgs history

     Message from routine bfgs:
     history already reset at previous step: stopping
     new conv_thr            =       0.0000000100 Ry

     new unit-cell volume =   6563.26828 a.u.^3 (   972.57600 Ang^3 )
     density =      0.35833 g/cm^3

[...]

ATOMIC_POSITIONS (angstrom)
Al       0.172470446   1.290980917   0.000000000
Al       3.169166095   1.297759337   0.000000000
Al       6.165893063   1.304537164   0.000000000
Al      -3.019848867   3.803731417   0.000000000
Al      -0.521814243   3.809378518   0.000000000
Al       1.914721798   3.702564878   0.000000000
Al       4.412771992   3.708197307   0.000000000

     Writing output data file 4al_planar_2x2_vcr.save/
     NEW-OLD atomic charge density approx. for the potential

[...]

     Threshold (ethr) on eigenvalues was too large:
     Diagonalizing with lowered threshold

     Davidson diagonalization with overlap
     ethr =  2.70E-11,  avg # of iterations =  1.0

[...]

          k = 0.0000 0.0000 0.0000 (111965 PWs)   bands (ev):

[...]

     negative rho (up, down):  9.056E-08 0.000E+00
          total   stress  (Ry/bohr**3)                   (kbar)     P=   -0.00
   0.00000000  -0.00000000   0.00000000          0.00     -0.00      0.00
  -0.00000000  -0.00000000   0.00000000         -0.00     -0.00      0.00
   0.00000000   0.00000000  -0.00000001          0.00      0.00     -0.00

     bfgs converged in 127 scf cycles and 124 bfgs steps
     (criteria: energy <  1.0E-05 Ry, force <  1.0E-04Ry/Bohr, cell <  5.0E-05kbar)

     End of BFGS Geometry Optimization

     Final enthalpy =     -32.2508079616 Ry
Begin final coordinates
     new unit-cell volume =   6563.26828 a.u.^3 (   972.57600 Ang^3 )
     density =      0.35833 g/cm^3

CELL_PARAMETERS (alat= 16.84048341)
   1.107393993   0.002503752   0.000000000
  -0.554945052   0.551687865   0.000000000
   0.000000000   0.000000000   2.244265901

ATOMIC_POSITIONS (angstrom)
Al       0.172470446   1.290980917   0.000000000
Al       3.169166095   1.297759337   0.000000000
Al       6.165893063   1.304537164   0.000000000
Al      -3.019848867   3.803731417   0.000000000
Al      -0.521814243   3.809378518   0.000000000
Al       1.914721798   3.702564878   0.000000000
Al       4.412771992   3.708197307   0.000000000
End final coordinates

     Writing output data file 4al_planar_2x2_vcr.save/

     A final scf calculation at the relaxed structure.
     The G-vectors are recalculated for the final unit cell
     Results may differ from those at the preceding step.

     bravais-lattice index     =            4
     lattice parameter (alat)  =      16.8405  a.u.
     unit-cell volume          =    6563.2683 (a.u.)^3
     number of atoms/cell      =            7
     number of atomic types    =            1
     number of electrons       =        21.00
     number of Kohn-Sham states=           15
     kinetic-energy cutoff     =      80.0000  Ry
     charge density cutoff     =     320.0000  Ry
     convergence threshold     =      1.0E-08
     mixing beta               =       0.4000
     number of iterations used =            8  plain     mixing
     Exchange-correlation      = PBE ( 1  4  3  4 0 0)

     celldm(1)=  16.840483  celldm(2)=   0.000000  celldm(3)=   2.244266
     celldm(4)=   0.000000  celldm(5)=   0.000000  celldm(6)=   0.000000

     crystal axes: (cart. coord. in units of alat)
               a(1) = (   1.107394   0.002504   0.000000 )
               a(2) = (  -0.554945   0.551688   0.000000 )
               a(3) = (   0.000000   0.000000   2.244266 )

     reciprocal axes: (cart. coord. in units 2 pi/alat)
               b(1) = (  0.900972  0.906291  0.000000 )
               b(2) = ( -0.004089  1.808506  0.000000 )
               b(3) = (  0.000000  0.000000  0.445580 )

     PseudoPot. # 1 for Al read from file:
     ./Al.upf
     MD5 check sum: 4974d48a734c9d7d1eb6780a1419d19d
     Pseudo is Norm-conserving + core correction, Zval =  3.0
     Generated using ONCVPSP code by D. R. Hamann
     Using radial grid of 1876 points,  6 beta functions with:
                l(1) =   0
                l(2) =   0
                l(3) =   1
                l(4) =   1
                l(5) =   2
                l(6) =   2

     atomic species   valence    mass     pseudopotential
        Al             3.00    29.98200     Al( 1.00)

      2 Sym. Ops. (no inversion) found

   Cartesian axes

     site n.     atom                  positions (alat units)
         1           Al  tau(   1) = (   0.0193535   0.1448652   0.0000000  )
         2           Al  tau(   2) = (   0.3556226   0.1456259   0.0000000  )
         3           Al  tau(   3) = (   0.6918952   0.1463864   0.0000000  )
         4           Al  tau(   4) = (  -0.3388672   0.4268292   0.0000000  )
         5           Al  tau(   5) = (  -0.0585545   0.4274629   0.0000000  )
         6           Al  tau(   6) = (   0.2148572   0.4154770   0.0000000  )
         7           Al  tau(   7) = (   0.4951717   0.4161090   0.0000000  )

     number of k points=     1  Methfessel-Paxton smearing, width (Ry)=  0.0500
                       cart. coord. in units 2pi/alat
        k(    1) = (   0.0000000   0.0000000   0.0000000), wk =   2.0000000

     Initial potential from superposition of free atoms

     starting charge   20.98287, renormalised to   21.00000

     negative rho (up, down):  1.732E-05 0.000E+00
     Starting wfcs are   28 randomized atomic wfcs

     Self-consistent Calculation

[...]

     negative rho (up, down):  2.892E-08 0.000E+00

[...]

     total energy              =     -32.25075802 Ry
     Harris-Foulkes estimate   =     -32.25075804 Ry
     estimated scf accuracy    <       0.00000004 Ry

     iteration # 11     ecut=    80.00 Ry     beta= 0.40
     Davidson diagonalization with overlap
     ethr =  2.10E-10,  avg # of iterations =  2.0

     End of self-consistent calculation

          k = 0.0000 0.0000 0.0000 ( 79271 PWs)   bands (ev):

   -10.7836  -8.2187  -8.0466  -7.6001  -7.2043  -4.9757  -4.9103  -4.5325
    -4.3832  -3.9201  -1.8033  -1.6490  -1.3997  -1.0749   0.3998

     the Fermi energy is    -1.9328 ev

!    total energy              =     -32.25075801 Ry
     Harris-Foulkes estimate   =     -32.25075802 Ry
     estimated scf accuracy    <          5.3E-09 Ry

     The total energy is the sum of the following terms:

     one-electron contribution =    -143.57491510 Ry
     hartree contribution      =      73.95614227 Ry
     xc contribution           =     -14.27092457 Ry
     ewald contribution        =      51.65122403 Ry
     smearing contrib. (-TS)   =      -0.01228465 Ry

     convergence has been achieved in  11 iterations

     Forces acting on atoms (cartesian axes, Ry/au):

     atom    1 type  1   force =    -0.00000284   -0.00000065    0.00000000
     atom    2 type  1   force =     0.00000143    0.00000032    0.00000000
     atom    3 type  1   force =     0.00000147    0.00000046    0.00000000
     atom    4 type  1   force =     0.00000334    0.00000265    0.00000000
     atom    5 type  1   force =    -0.00000403    0.00000275    0.00000000
     atom    6 type  1   force =     0.00000677   -0.00000253    0.00000000
     atom    7 type  1   force =    -0.00000615   -0.00000299    0.00000000

     Total force =     0.000012     Total SCF correction =     0.000017
     SCF correction compared to forces is large: reduce conv_thr to get better values

     Computing stress (Cartesian axis) and pressure

          total   stress  (Ry/bohr**3)                   (kbar)     P=    0.00
   0.00000003  -0.00000000   0.00000000          0.00     -0.00      0.00
  -0.00000000   0.00000002   0.00000000         -0.00      0.00      0.00
   0.00000000   0.00000000  -0.00000002          0.00      0.00     -0.00

     Writing output data file 4al_planar_2x2_vcr.save/

     General routines

     Parallel routines

   This run was terminated on:  11:55:37  25Nov2020

   JOB DONE.