     Program PWSCF v.6.3MaX starts on 25Nov2020 at 21:17:45

     R & G space division:  proc/nbgrp/npool/nimage =       8
     Waiting for input...
     Reading input from standard input

     Current dimensions of program PWSCF are:
     Max number of different atomic species (ntypx) = 10
     Max number of k-points (npk) =  40000
     Max angular momentum in pseudopotentials (lmaxx) =  3

     Subspace diagonalization in iterative solution of the eigenvalue problem:
     a serial algorithm will be used

     Message from routine find_sym:
     Not a group! Trying with lower acceptance parameter...
     Message from routine find_sym:
     Symmetry operations form a group

     bravais-lattice index     =            4
     lattice parameter (alat)  =      33.6810  a.u.
     unit-cell volume          =   37130.3117 (a.u.)^3
     number of atoms/cell      =           31
     number of atomic types    =            1
     number of electrons       =        93.00
     number of Kohn-Sham states=           56
     kinetic-energy cutoff     =      80.0000  Ry
     charge density cutoff     =     320.0000  Ry
     convergence threshold     =      1.0E-06
     mixing beta               =       0.4000
     number of iterations used =            8  plain     mixing
     Exchange-correlation      = PBE ( 1  4  3  4 0 0)
     nstep                     =          300

     celldm(1)=  33.680967  celldm(2)=   0.000000  celldm(3)=   1.122133
     celldm(4)=   0.000000  celldm(5)=   0.000000  celldm(6)=   0.000000

     crystal axes: (cart. coord. in units of alat)
               a(1) = (   1.000000   0.000000   0.000000 )
               a(2) = (  -0.500000   0.866025   0.000000 )
               a(3) = (   0.000000   0.000000   1.122133 )

     reciprocal axes: (cart. coord. in units 2 pi/alat)
               b(1) = (  1.000000  0.577350  0.000000 )
               b(2) = (  0.000000  1.154701  0.000000 )
               b(3) = (  0.000000  0.000000  0.891160 )

     PseudoPot. # 1 for Al read from file:
     ./Al.upf
     MD5 check sum: 4974d48a734c9d7d1eb6780a1419d19d
     Pseudo is Norm-conserving + core correction, Zval =  3.0
     Generated using ONCVPSP code by D. R. Hamann
     Using radial grid of 1876 points,  6 beta functions with:
                l(1) =   0
                l(2) =   0
                l(3) =   1
                l(4) =   1
                l(5) =   2
                l(6) =   2

     atomic species   valence    mass     pseudopotential
        Al             3.00    29.98200     Al( 1.00)

      2 Sym. Ops. (no inversion) found

   Cartesian axes

     site n.     atom                  positions (alat units)
         1           Al  tau(   1) = (  -0.0000000   0.1443393   0.0000000  )
         2           Al  tau(   2) = (   0.1250015   0.0721696   0.0000000  )
         3           Al  tau(   3) = (  -0.1249997   0.3608472   0.0000000  )
         4           Al  tau(   4) = (   0.0000018   0.2886775   0.0000000  )
         5           Al  tau(   5) = (  -0.2499994   0.5773550   0.0000000  )
         6           Al  tau(   6) = (  -0.1249979   0.5051854   0.0000000  )
         7           Al  tau(   7) = (  -0.3749991   0.7938629   0.0000000  )
         8           Al  tau(   8) = (   0.2500011   0.1443403   0.0000000  )
         9           Al  tau(   9) = (   0.3750027   0.0721706   0.0000000  )
        10           Al  tau(  10) = (   0.1250014   0.3608482   0.0000000  )
        11           Al  tau(  11) = (   0.2500030   0.2886785   0.0000000  )
        12           Al  tau(  12) = (   0.0000017   0.5773560   0.0000000  )
        13           Al  tau(  13) = (   0.1250033   0.5051864   0.0000000  )
        14           Al  tau(  14) = (  -0.1249980   0.7938639   0.0000000  )
        15           Al  tau(  15) = (   0.0000036   0.7216942   0.0000000  )
        16           Al  tau(  16) = (   0.5000023   0.1443413   0.0000000  )
        17           Al  tau(  17) = (   0.6250038   0.0721717   0.0000000  )
        18           Al  tau(  18) = (   0.3750026   0.3608492   0.0000000  )
        19           Al  tau(  19) = (   0.5000041   0.2886795   0.0000000  )
        20           Al  tau(  20) = (   0.2500029   0.5773571   0.0000000  )
        21           Al  tau(  21) = (   0.3750044   0.5051874   0.0000000  )
        22           Al  tau(  22) = (   0.1250032   0.7938649   0.0000000  )
        23           Al  tau(  23) = (   0.2500047   0.7216953   0.0000000  )
        24           Al  tau(  24) = (   0.7500035   0.1443423   0.0000000  )
        25           Al  tau(  25) = (   0.8750050   0.0721727   0.0000000  )
        26           Al  tau(  26) = (   0.6250038   0.3608502   0.0000000  )
        27           Al  tau(  27) = (   0.7500053   0.2886805   0.0000000  )
        28           Al  tau(  28) = (   0.5000041   0.5773581   0.0000000  )
        29           Al  tau(  29) = (   0.6250056   0.5051884   0.0000000  )
        30           Al  tau(  30) = (   0.3750044   0.7938660   0.0000000  )
        31           Al  tau(  31) = (   0.5000059   0.7216963   0.0000000  )

     number of k points=     1  Methfessel-Paxton smearing, width (Ry)=  0.0500
                       cart. coord. in units 2pi/alat
        k(    1) = (   0.0000000   0.0000000   0.0000000), wk =   2.0000000

     Initial potential from superposition of free atoms

     starting charge   92.92414, renormalised to   93.00000

     negative rho (up, down):  9.278E-05 0.000E+00
     Starting wfcs are  124 randomized atomic wfcs

     Self-consistent Calculation

     iteration #  1     ecut=    80.00 Ry     beta= 0.40
     Davidson diagonalization with overlap
     ethr =  1.00E-02,  avg # of iterations =  2.0

     total energy              =    -140.64173945 Ry
     Harris-Foulkes estimate   =    -141.23600756 Ry
     estimated scf accuracy    <       1.54935719 Ry

[...]

     End of self-consistent calculation

          k = 0.0000 0.0000 0.0000 (448403 PWs)   bands (ev):

    -9.9529  -9.4483  -9.4330  -9.4329  -9.4259  -9.4258  -9.1459  -8.4048
    -8.4048  -8.3881  -8.3881  -8.3797  -8.3033  -8.2570  -8.2569  -7.5864
    -6.9325  -6.9324  -6.8233  -6.4866  -6.4772  -6.4772  -6.3700  -6.3700
    -5.4640  -4.8435  -4.8434  -4.8369  -4.7356  -4.7355  -4.4780  -4.4680
    -4.4429  -4.4428  -4.1225  -4.1224  -3.9779  -3.4712  -3.4687  -3.4687
    -3.4576  -3.4575  -3.4017  -3.2744  -3.2743  -3.2224  -3.2073  -2.9743
    -2.9653  -2.9652  -2.9389  -2.5198  -2.5197  -2.4493  -2.4486  -2.4314

     the Fermi energy is    -3.0910 ev

!    total energy              =    -140.93610951 Ry
     Harris-Foulkes estimate   =    -140.93610966 Ry
     estimated scf accuracy    <       0.00000015 Ry

     The total energy is the sum of the following terms:

     one-electron contribution =    -502.03573442 Ry
     hartree contribution      =     259.76290263 Ry
     xc contribution           =     -61.33573411 Ry
     ewald contribution        =     162.75344938 Ry
     smearing contrib. (-TS)   =      -0.08099300 Ry

     convergence has been achieved in  19 iterations

     Forces acting on atoms (cartesian axes, Ry/au):

     atom    1 type  1   force =     0.00530227   -0.00123235    0.00000000
     atom    2 type  1   force =     0.00060922    0.00333032    0.00000000
     atom    3 type  1   force =     0.00158895    0.00520298    0.00000000
     atom    4 type  1   force =    -0.00200673   -0.00115747    0.00000000
     atom    5 type  1   force =    -0.00000614    0.01514450    0.00000000
     atom    6 type  1   force =     0.00316771   -0.00112355    0.00000000
     atom    7 type  1   force =     0.01311980   -0.00759650    0.00000000
     atom    8 type  1   force =     0.00000915   -0.00128253    0.00000000
     atom    9 type  1   force =    -0.00064349    0.00333133    0.00000000
     atom   10 type  1   force =    -0.00045022   -0.00027062    0.00000000
     atom   11 type  1   force =    -0.00002531    0.00128222    0.00000000
     atom   12 type  1   force =    -0.00111002    0.00065388    0.00000000
     atom   13 type  1   force =     0.00110314   -0.00065629    0.00000000
     atom   14 type  1   force =    -0.01311246   -0.00759931    0.00000000
     atom   15 type  1   force =     0.00253664   -0.00220451    0.00000000
     atom   16 type  1   force =    -0.00527431   -0.00122143    0.00000000
     atom   17 type  1   force =     0.00186073    0.00109019    0.00000000
     atom   18 type  1   force =     0.00046853   -0.00025619    0.00000000
     atom   19 type  1   force =     0.00202110   -0.00116172    0.00000000
     atom   20 type  1   force =     0.00000647    0.00052265    0.00000000
     atom   21 type  1   force =    -0.00112985   -0.00065667    0.00000000
     atom   22 type  1   force =    -0.00368849   -0.00397219    0.00000000
     atom   23 type  1   force =    -0.00000594    0.00233906    0.00000000
     atom   24 type  1   force =     0.00000607    0.00000052    0.00000000
     atom   25 type  1   force =    -0.00187733    0.00110273    0.00000000
     atom   26 type  1   force =    -0.00158066    0.00518697    0.00000000
     atom   27 type  1   force =    -0.00001487   -0.00215766    0.00000000
     atom   28 type  1   force =     0.00115201    0.00065598    0.00000000
     atom   29 type  1   force =    -0.00318547   -0.00109801    0.00000000
     atom   30 type  1   force =     0.00370759   -0.00398986    0.00000000
     atom   31 type  1   force =    -0.00254808   -0.00220646    0.00000000

     Total force =     0.031231     Total SCF correction =     0.000322

     Computing stress (Cartesian axis) and pressure

          total   stress  (Ry/bohr**3)                   (kbar)     P=   -0.57
  -0.00000579   0.00000002   0.00000000         -0.85      0.00      0.00
   0.00000002  -0.00000579   0.00000000          0.00     -0.85      0.00
   0.00000000   0.00000000   0.00000000          0.00      0.00      0.00

     BFGS Geometry Optimization

     number of scf cycles    =   1
     number of bfgs steps    =   0

     enthalpy new            =    -140.9361095117 Ry

     new trust radius        =       0.0151603387 bohr
     new conv_thr            =       0.0000010000 Ry

     new unit-cell volume =  37119.56861 a.u.^3 (  5500.55249 Ang^3 )
     density =      0.28059 g/cm^3

CELL_PARAMETERS (alat= 33.68096681)
   0.999855345   0.000000426   0.000000000
  -0.499927303   0.865899876   0.000000000
   0.000000000   0.000000000   1.122132950

ATOMIC_POSITIONS (angstrom)
Al       0.002805945   2.571563577   0.000000000
Al       2.227927349   1.287870323   0.000000000
Al      -2.226729497   6.433272288   0.000000000
Al      -0.001027476   5.143799603   0.000000000
Al      -4.455144177  10.296836127   0.000000000
Al      -2.225860399   9.002121328   0.000000000
Al      -6.675769962  14.143107628   0.000000000
Al       4.455181589   2.571557117   0.000000000
Al       6.682440777   1.287890950   0.000000000
Al       2.227367817   6.430396297   0.000000000
Al       4.455197131   5.145110538   0.000000000
Al      -0.000552006  10.289189221   0.000000000
Al       2.228223475   9.002388647   0.000000000
Al      -2.234473229  14.143126226   0.000000000
Al       0.001411221  12.859873259   0.000000000
Al       8.907562348   2.571609539   0.000000000
Al      11.138941996   1.286725254   0.000000000
Al       6.683030164   6.430424022   0.000000000
Al       8.911456130   5.143837541   0.000000000
Al       4.455214971  10.289139879   0.000000000
Al       6.682218238   9.002408534   0.000000000
Al       2.225689239  14.145065431   0.000000000
Al       4.455242176  12.862297354   0.000000000
Al      13.365532438   2.572276167   0.000000000
Al      15.592140425   1.286751978   0.000000000
Al      11.137122175   6.433324092   0.000000000
Al      13.365555136   5.143330680   0.000000000
Al       8.910997315  10.289230518   0.000000000
Al      11.136306844   9.002195116   0.000000000
Al       6.684778752  14.145076177   0.000000000
Al       8.909073366  12.859912406   0.000000000

     Writing output data file 8al_planar_2x2_vcr.save/
     NEW-OLD atomic charge density approx. for the potential

     negative rho (up, down):  2.996E-07 0.000E+00
     extrapolated charge   92.97311, renormalised to   93.00000

[...]

     Threshold (ethr) on eigenvalues was too large:
     Diagonalizing with lowered threshold

     Davidson diagonalization with overlap
     ethr =  6.38E-08,  avg # of iterations =  5.0

     negative rho (up, down):  1.482E-07 0.000E+00

[...]

     enthalpy old            =    -140.9361095117 Ry
     enthalpy new            =    -140.9371137854 Ry

     CASE: enthalpy_new < enthalpy_old

     WARNING: bfgs curvature condition failed, Theta= 0.854
     new trust radius        =       0.0227372099 bohr
     new conv_thr            =       0.0000010000 Ry

[...]

     Writing output data file 8al_planar_2x2_vcr.save/
     NEW-OLD atomic charge density approx. for the potential

[...]

     Writing output data file 8al_planar_2x2_vcr.save/
     NEW-OLD atomic charge density approx. for the potential
     Check: negative starting charge=   -0.000121

[...]

     Writing output data file 8al_planar_2x2_vcr.save/
     Check: negative starting charge=   -0.000121
     NEW-OLD atomic charge density approx. for the potential
     Check: negative starting charge=   -0.000133

[...]

     iteration #  1     ecut=    80.00 Ry     beta= 0.40
     Davidson diagonalization with overlap
     c_bands:  1 eigenvalues not converged
     ethr =  1.00E-06,  avg # of iterations = 20.0

[...]

     WARNING: bfgs curvature condition failed, Theta= 0.338
     new trust radius        =       0.5426940722 bohr
     new conv_thr            =       0.0000010000 Ry

[...]

     CASE: enthalpy_new > enthalpy_old

[...]

     iteration #  1     ecut=    80.00 Ry     beta= 0.40
     Davidson diagonalization with overlap
     c_bands:  1 eigenvalues not converged
     ethr =  1.00E-06,  avg # of iterations = 20.0

[...]

     CASE: enthalpy_new < enthalpy_old

[...]

     new trust radius        =       0.0000035580 bohr

     trust_radius < trust_radius_min

     resetting bfgs history

     new conv_thr            =       0.0000000994 Ry

[...]

     negative rho (up, down):  2.038E-07 0.000E+00
     extrapolated charge   92.99964, renormalised to   93.00000

[...]

     new trust radius        =       0.0000082277 bohr

     trust_radius < trust_radius_min

     resetting bfgs history

     new conv_thr            =       0.0000000994 Ry

[...]

     Self-consistent Calculation

[...]

     Threshold (ethr) on eigenvalues was too large:
     Diagonalizing with lowered threshold

     Davidson diagonalization with overlap
     ethr =  1.83E-09,  avg # of iterations = 13.0

[...]

     total energy              =    -142.09229728 Ry
     Harris-Foulkes estimate   =    -142.09229736 Ry
     estimated scf accuracy    <       0.00000028 Ry

     iteration #  5     ecut=    80.00 Ry     beta= 0.40
     Davidson diagonalization with overlap
     ethr =  3.02E-10,  avg # of iterations =  5.0

     End of self-consistent calculation

          k = 0.0000 0.0000 0.0000 (448403 PWs)   bands (ev):

   -11.5513 -10.8753 -10.8351 -10.6724 -10.6081 -10.4507 -10.3605  -9.2020
    -9.1753  -8.9450  -8.9055  -8.8161  -8.6537  -8.3224  -8.1783  -8.0986
    -8.0897  -7.8960  -7.8415  -6.1416  -6.1282  -6.0831  -5.9460  -5.7241
    -5.6565  -5.6041  -5.5905  -5.4979  -5.4497  -5.3247  -4.9465  -4.8252
    -4.3364  -4.2698  -4.1388  -4.1381  -4.1065  -4.0262  -4.0001  -3.9675
    -3.8505  -3.7962  -3.6104  -3.5274  -2.5182  -2.4978  -2.3317  -2.2972
    -2.2437  -2.1386  -2.1214  -1.9231  -1.7879  -1.7187  -1.7105  -1.5810

     the Fermi energy is    -2.4292 ev

!    total energy              =    -142.09229727 Ry
     Harris-Foulkes estimate   =    -142.09229734 Ry
     estimated scf accuracy    <       0.00000010 Ry

     The total energy is the sum of the following terms:

     one-electron contribution =    -685.41387198 Ry
     hartree contribution      =     351.55622633 Ry
     xc contribution           =     -63.61579126 Ry
     ewald contribution        =     255.42226582 Ry
     smearing contrib. (-TS)   =      -0.04112618 Ry

     convergence has been achieved in   5 iterations

     Forces acting on atoms (cartesian axes, Ry/au):

     atom    1 type  1   force =     0.00075674   -0.00128908    0.00000000
     atom    2 type  1   force =    -0.00061602   -0.00090259    0.00000000
     atom    3 type  1   force =     0.00086317   -0.00080761    0.00000000
     atom    4 type  1   force =    -0.00040386   -0.00055371    0.00000000
     atom    5 type  1   force =     0.00051131    0.00012350    0.00000000
     atom    6 type  1   force =    -0.00031197   -0.00084578    0.00000000
     atom    7 type  1   force =     0.00003907   -0.00061298    0.00000000
     atom    8 type  1   force =     0.00054915    0.00011355    0.00000000
     atom    9 type  1   force =     0.00144277    0.00045182    0.00000000
     atom   10 type  1   force =    -0.00055111    0.00001441    0.00000000
     atom   11 type  1   force =     0.00063434   -0.00001607    0.00000000
     atom   12 type  1   force =    -0.00042219    0.00028545    0.00000000
     atom   13 type  1   force =    -0.00003215    0.00158277    0.00000000
     atom   14 type  1   force =     0.00020535   -0.00162791    0.00000000
     atom   15 type  1   force =     0.00025418   -0.00003645    0.00000000
     atom   16 type  1   force =    -0.00017211   -0.00057632    0.00000000
     atom   17 type  1   force =    -0.00071180    0.00087705    0.00000000
     atom   18 type  1   force =    -0.00075991    0.00055745    0.00000000
     atom   19 type  1   force =    -0.00076804    0.00074871    0.00000000
     atom   20 type  1   force =    -0.00076981   -0.00080380    0.00000000
     atom   21 type  1   force =    -0.00037191    0.00098406    0.00000000
     atom   22 type  1   force =    -0.00032241   -0.00041852    0.00000000
     atom   23 type  1   force =     0.00081340    0.00110896    0.00000000
     atom   24 type  1   force =    -0.00008588   -0.00041779    0.00000000
     atom   25 type  1   force =    -0.00085256    0.00052750    0.00000000
     atom   26 type  1   force =     0.00016374    0.00104433    0.00000000
     atom   27 type  1   force =     0.00121114    0.00031574    0.00000000
     atom   28 type  1   force =    -0.00043067    0.00076347    0.00000000
     atom   29 type  1   force =     0.00124137    0.00085512    0.00000000
     atom   30 type  1   force =    -0.00060044   -0.00065356    0.00000000
     atom   31 type  1   force =    -0.00050289   -0.00079175    0.00000000

     Total force =     0.005689     Total SCF correction =     0.000309

     Computing stress (Cartesian axis) and pressure

          total   stress  (Ry/bohr**3)                   (kbar)     P=    0.06
  -0.00000086  -0.00000156   0.00000000         -0.13     -0.23      0.00
  -0.00000156   0.00000218   0.00000000         -0.23      0.32      0.00
   0.00000000   0.00000000  -0.00000001          0.00      0.00     -0.00

     number of scf cycles    = 300
     number of bfgs steps    = 194

     enthalpy old            =    -142.0924126735 Ry
     enthalpy new            =    -142.0922972711 Ry

     CASE: enthalpy_new > enthalpy_old

     new trust radius        =       0.0003635848 bohr
     new conv_thr            =       0.0000000994 Ry

     new unit-cell volume =  26775.30851 a.u.^3 (  3967.69131 Ang^3 )
     density =      0.38899 g/cm^3

CELL_PARAMETERS (alat= 33.68096681)
   0.836323573   0.015072250   0.000000000
  -0.405024095   0.739428206   0.000000000
   0.000000000   0.000000000   1.122132950

ATOMIC_POSITIONS (angstrom)
Al       1.585923007   3.899633680   0.000000000
Al       1.160920972   1.472171804   0.000000000
Al      -0.334361258   5.703795998   0.000000000
Al      -0.953284039   3.211291026   0.000000000
Al      -4.097615857  10.619792923   0.000000000
Al      -2.218781158   7.564931857   0.000000000
Al      -6.227258549  12.126957792   0.000000000
Al       4.187496916   3.499691273   0.000000000
Al       3.551416823   0.451167755   0.000000000
Al       2.294426815   6.260344557   0.000000000
Al       4.912432236   6.345770858   0.000000000
Al       0.396279943   8.156769011   0.000000000
Al       3.001764545   8.658392163   0.000000000
Al      -1.383356226  12.401738333   0.000000000
Al      -1.571472414   9.935886085   0.000000000
Al       6.183042307   1.775491531   0.000000000
Al       8.353644727   0.020645641   0.000000000
Al       6.782230729   4.402623467   0.000000000
Al       8.783891307   2.553640320   0.000000000
Al       3.570922569  11.124163385   0.000000000
Al       5.608943804   8.983463693   0.000000000
Al       0.950913463  10.658228006   0.000000000
Al       3.731225429  13.658813108   0.000000000
Al      11.374744914   2.978780234   0.000000000
Al      13.574505214   0.930133467   0.000000000
Al       9.378027316   5.124561094   0.000000000
Al      11.968056579   5.436833673   0.000000000
Al       7.502824654   7.068218451   0.000000000
Al      10.067284601   7.819294439   0.000000000
Al       6.164149738  11.537222439   0.000000000
Al       8.228017927   9.756541629   0.000000000

     Writing output data file 8al_planar_2x2_vcr.save/
     Check: negative starting charge=   -0.000131
     NEW-OLD atomic charge density approx. for the potential
     Check: negative starting charge=   -0.000131

     negative rho (up, down):  1.755E-07 0.000E+00

     Writing output data file 8al_planar_2x2_vcr.save/

     General routines

     Parallel routines

   This run was terminated on:  23:44:41  26Nov2020

   JOB DONE.