     Program PWSCF v.6.3MaX starts on 26Nov2020 at  9:12:10

     R & G space division:  proc/nbgrp/npool/nimage =       8
     Waiting for input...
     Reading input from standard input

     Current dimensions of program PWSCF are:
     Max number of different atomic species (ntypx) = 10
     Max number of k-points (npk) =  40000
     Max angular momentum in pseudopotentials (lmaxx) =  3

     Subspace diagonalization in iterative solution of the eigenvalue problem:
     a serial algorithm will be used

     bravais-lattice index     =            4
     lattice parameter (alat)  =      33.6810  a.u.
     unit-cell volume          =   37130.3117 (a.u.)^3
     number of atoms/cell      =           31
     number of atomic types    =            1
     number of electrons       =        93.00
     number of Kohn-Sham states=           56
     kinetic-energy cutoff     =      80.0000  Ry
     charge density cutoff     =     320.0000  Ry
     convergence threshold     =      1.0E-06
     mixing beta               =       0.4000
     number of iterations used =            8  plain     mixing
     Exchange-correlation      = PBE ( 1  4  3  4 0 0)
     nstep                     =          300

     celldm(1)=  33.680967  celldm(2)=   0.000000  celldm(3)=   1.122133
     celldm(4)=   0.000000  celldm(5)=   0.000000  celldm(6)=   0.000000

     crystal axes: (cart. coord. in units of alat)
               a(1) = (   1.000000   0.000000   0.000000 )
               a(2) = (  -0.500000   0.866025   0.000000 )
               a(3) = (   0.000000   0.000000   1.122133 )

     reciprocal axes: (cart. coord. in units 2 pi/alat)
               b(1) = (  1.000000  0.577350  0.000000 )
               b(2) = (  0.000000  1.154701  0.000000 )
               b(3) = (  0.000000  0.000000  0.891160 )

     PseudoPot. # 1 for Al read from file:
     ./Al.upf
     MD5 check sum: 4974d48a734c9d7d1eb6780a1419d19d
     Pseudo is Norm-conserving + core correction, Zval =  3.0
     Generated using ONCVPSP code by D. R. Hamann
     Using radial grid of 1876 points,  6 beta functions with:
                l(1) =   0
                l(2) =   0
                l(3) =   1
                l(4) =   1
                l(5) =   2
                l(6) =   2

     atomic species   valence    mass     pseudopotential
        Al             3.00    29.98200     Al( 1.00)

      2 Sym. Ops. (no inversion) found

   Cartesian axes

     site n.     atom                  positions (alat units)
         1           Al  tau(   1) = (  -0.0000000   0.1443393   0.0000000  )
         2           Al  tau(   2) = (   0.1250015   0.0721696   0.0000000  )
         3           Al  tau(   3) = (  -0.1249997   0.3608472   0.0000000  )
         4           Al  tau(   4) = (   0.0000018   0.2886775   0.0000000  )
         5           Al  tau(   5) = (  -0.2499994   0.5773550   0.0000000  )
         6           Al  tau(   6) = (  -0.1249979   0.5051854   0.0000000  )
         7           Al  tau(   7) = (  -0.3749991   0.7938629   0.0000000  )
         8           Al  tau(   8) = (  -0.2499976   0.7216932   0.0000000  )
         9           Al  tau(   9) = (   0.2500011   0.1443403   0.0000000  )
        10           Al  tau(  10) = (   0.3750027   0.0721706   0.0000000  )
        11           Al  tau(  11) = (   0.1250014   0.3608482   0.0000000  )
        12           Al  tau(  12) = (   0.2500030   0.2886785   0.0000000  )
        13           Al  tau(  13) = (   0.0000017   0.5773560   0.0000000  )
        14           Al  tau(  14) = (   0.1250033   0.5051864   0.0000000  )
        15           Al  tau(  15) = (  -0.1249980   0.7938639   0.0000000  )
        16           Al  tau(  16) = (   0.0000036   0.7216942   0.0000000  )
        17           Al  tau(  17) = (   0.5000023   0.1443413   0.0000000  )
        18           Al  tau(  18) = (   0.6250038   0.0721717   0.0000000  )
        19           Al  tau(  19) = (   0.3750026   0.3608492   0.0000000  )
        20           Al  tau(  20) = (   0.5000041   0.2886795   0.0000000  )
        21           Al  tau(  21) = (   0.2500029   0.5773571   0.0000000  )
        22           Al  tau(  22) = (   0.3750044   0.5051874   0.0000000  )
        23           Al  tau(  23) = (   0.1250032   0.7938649   0.0000000  )
        24           Al  tau(  24) = (   0.2500047   0.7216953   0.0000000  )
        25           Al  tau(  25) = (   0.7500035   0.1443423   0.0000000  )
        26           Al  tau(  26) = (   0.6250038   0.3608502   0.0000000  )
        27           Al  tau(  27) = (   0.7500053   0.2886805   0.0000000  )
        28           Al  tau(  28) = (   0.5000041   0.5773581   0.0000000  )
        29           Al  tau(  29) = (   0.6250056   0.5051884   0.0000000  )
        30           Al  tau(  30) = (   0.3750044   0.7938660   0.0000000  )
        31           Al  tau(  31) = (   0.5000059   0.7216963   0.0000000  )

     number of k points=     1  Methfessel-Paxton smearing, width (Ry)=  0.0500
                       cart. coord. in units 2pi/alat
        k(    1) = (   0.0000000   0.0000000   0.0000000), wk =   2.0000000

     Initial potential from superposition of free atoms

     starting charge   92.92414, renormalised to   93.00000

     negative rho (up, down):  9.278E-05 0.000E+00
     Starting wfcs are  124 randomized atomic wfcs

     Self-consistent Calculation

     iteration #  1     ecut=    80.00 Ry     beta= 0.40
     Davidson diagonalization with overlap
     ethr =  1.00E-02,  avg # of iterations =  2.0

     total energy              =    -140.64237888 Ry
     Harris-Foulkes estimate   =    -141.23598469 Ry
     estimated scf accuracy    <       1.54819059 Ry

[...]

     End of self-consistent calculation

          k = 0.0000 0.0000 0.0000 (448403 PWs)   bands (ev):

    -9.9529  -9.4482  -9.4330  -9.4329  -9.4259  -9.4258  -9.1458  -8.4049
    -8.4048  -8.3881  -8.3880  -8.3796  -8.3034  -8.2568  -8.2568  -7.5865
    -6.9325  -6.9324  -6.8232  -6.4865  -6.4772  -6.4772  -6.3701  -6.3700
    -5.4640  -4.8434  -4.8433  -4.8370  -4.7357  -4.7356  -4.4781  -4.4681
    -4.4427  -4.4427  -4.1225  -4.1224  -3.9779  -3.4711  -3.4687  -3.4686
    -3.4577  -3.4577  -3.4016  -3.2744  -3.2744  -3.2223  -3.2073  -2.9743
    -2.9652  -2.9652  -2.9389  -2.5198  -2.5197  -2.4498  -2.4492  -2.4314

     the Fermi energy is    -3.0910 ev

!    total energy              =    -140.93611616 Ry
     Harris-Foulkes estimate   =    -140.93611692 Ry
     estimated scf accuracy    <       0.00000081 Ry

     The total energy is the sum of the following terms:

     one-electron contribution =    -502.03546077 Ry
     hartree contribution      =     259.76290065 Ry
     xc contribution           =     -61.33566949 Ry
     ewald contribution        =     162.75312982 Ry
     smearing contrib. (-TS)   =      -0.08101636 Ry

     convergence has been achieved in  18 iterations

     Forces acting on atoms (cartesian axes, Ry/au):

     atom    1 type  1   force =    -0.01313265   -0.00759131    0.00000000
     atom    2 type  1   force =     0.00254234   -0.00216707    0.00000000
     atom    3 type  1   force =     0.00002356   -0.00129971    0.00000000
     atom    4 type  1   force =    -0.00065535    0.00333528    0.00000000
     atom    5 type  1   force =    -0.00042048   -0.00024451    0.00000000
     atom    6 type  1   force =    -0.00000493    0.00131588    0.00000000
     atom    7 type  1   force =    -0.00111834    0.00064081    0.00000000
     atom    8 type  1   force =     0.00115563   -0.00068918    0.00000000
     atom    9 type  1   force =    -0.00370822   -0.00392155    0.00000000
     atom   10 type  1   force =     0.00001560    0.00232617    0.00000000
     atom   11 type  1   force =    -0.00526692   -0.00124459    0.00000000
     atom   12 type  1   force =     0.00185045    0.00106107    0.00000000
     atom   13 type  1   force =     0.00044864   -0.00025022    0.00000000
     atom   14 type  1   force =     0.00198022   -0.00116034    0.00000000
     atom   15 type  1   force =     0.00001323    0.00050122    0.00000000
     atom   16 type  1   force =    -0.00116083   -0.00068277    0.00000000
     atom   17 type  1   force =     0.00370901   -0.00393309    0.00000000
     atom   18 type  1   force =    -0.00252901   -0.00216410    0.00000000
     atom   19 type  1   force =     0.00001040   -0.00001593    0.00000000
     atom   20 type  1   force =    -0.00185323    0.00106587    0.00000000
     atom   21 type  1   force =    -0.00154697    0.00520267    0.00000000
     atom   22 type  1   force =     0.00000151   -0.00213399    0.00000000
     atom   23 type  1   force =     0.00115733    0.00063473    0.00000000
     atom   24 type  1   force =    -0.00319526   -0.00110624    0.00000000
     atom   25 type  1   force =     0.01310929   -0.00757692    0.00000000
     atom   26 type  1   force =     0.00527021   -0.00125552    0.00000000
     atom   27 type  1   force =     0.00061386    0.00329494    0.00000000
     atom   28 type  1   force =     0.00153752    0.00519515    0.00000000
     atom   29 type  1   force =    -0.00199597   -0.00117599    0.00000000
     atom   30 type  1   force =    -0.00000507    0.01516577    0.00000000
     atom   31 type  1   force =     0.00315443   -0.00112655    0.00000000

     Total force =     0.031205     Total SCF correction =     0.000709

     Computing stress (Cartesian axis) and pressure

          total   stress  (Ry/bohr**3)                   (kbar)     P=   -0.57
  -0.00000578   0.00000001   0.00000000         -0.85      0.00      0.00
   0.00000001  -0.00000580   0.00000000          0.00     -0.85      0.00
   0.00000000   0.00000000   0.00000000          0.00      0.00      0.00

     BFGS Geometry Optimization

     number of scf cycles    =   1
     number of bfgs steps    =   0

     enthalpy new            =    -140.9361161632 Ry

     new trust radius        =       0.0151688687 bohr
     new conv_thr            =       0.0000010000 Ry

     new unit-cell volume =  37119.56620 a.u.^3 (  5500.55214 Ang^3 )
     density =      0.28059 g/cm^3

CELL_PARAMETERS (alat= 33.68096681)
   0.999855529   0.000000176   0.000000000
  -0.499927612   0.865899785   0.000000000
   0.000000000   0.000000000   1.122132950

ATOMIC_POSITIONS (angstrom)
Al      -0.006948630   2.568198407   0.000000000
Al       2.228950250   1.284960773   0.000000000
Al      -2.227559761   6.429830668   0.000000000
Al      -0.000313747   5.146175440   0.000000000
Al      -4.455366802  10.288692340   0.000000000
Al      -2.227541702   9.003410342   0.000000000
Al      -6.683308134  14.147464132   0.000000000
Al      -4.454499746  12.860652832   0.000000000
Al       4.453214903   2.570159058   0.000000000
Al       6.682790411   1.287357128   0.000000000
Al       2.224818101   6.429878808   0.000000000
Al       4.456189136   5.144991134   0.000000000
Al       0.000270113  10.288708296   0.000000000
Al       2.228685702   9.002119155   0.000000000
Al      -2.227532357  14.147409257   0.000000000
Al      -0.000548326  12.860675204   0.000000000
Al       8.912316425   2.570171932   0.000000000
Al      11.136621114   1.285000305   0.000000000
[...]

[...]

     Writing output data file 26al_planar_2x2_vcr.save/
     NEW-OLD atomic charge density approx. for the potential

[...]

     Writing output data file 26al_planar_2x2_vcr.save/
     NEW-OLD atomic charge density approx. for the potential
     Check: negative starting charge=   -0.000121

[...]

     Writing output data file 26al_planar_2x2_vcr.save/
     Check: negative starting charge=   -0.000121
     NEW-OLD atomic charge density approx. for the potential
     Check: negative starting charge=   -0.000133

[...]

     WARNING: bfgs curvature condition failed, Theta= 0.676
     uphill step: resetting bfgs history

[...]

     Threshold (ethr) on eigenvalues was too large:
     Diagonalizing with lowered threshold

     Davidson diagonalization with overlap
     ethr =  9.89E-08,  avg # of iterations =  6.0

[...]

     WARNING: bfgs curvature condition failed, Theta= 0.581
     uphill step: resetting bfgs history

[...]

     WARNING: bfgs curvature condition failed, Theta= 0.908
     new trust radius        =       0.0737523891 bohr
     new conv_thr            =       0.0000010000 Ry

[...]

     iteration #  1     ecut=    80.00 Ry     beta= 0.40
     Davidson diagonalization with overlap
     c_bands:  1 eigenvalues not converged
     ethr =  1.00E-06,  avg # of iterations = 20.0

[...]

     Total force =     0.000628     Total SCF correction =     0.000027

[...]

     Total force =     0.000485     Total SCF correction =     0.000070
     SCF correction compared to forces is large: reduce conv_thr to get better values

[...]

     Writing output data file 26al_planar_2x2_vcr.save/
     Check: negative starting charge=   -0.000131
     NEW-OLD atomic charge density approx. for the potential
     Check: negative starting charge=   -0.000131

     negative rho (up, down):  1.494E-08 0.000E+00
     extrapolated charge   92.99921, renormalised to   93.00000

[...]

     Writing output data file 26al_planar_2x2_vcr.save/
     Check: negative starting charge=   -0.000131
     NEW-OLD atomic charge density approx. for the potential
     Check: negative starting charge=   -0.000131
     extrapolated charge   92.99982, renormalised to   93.00000

[...]

     small trust_radius: resetting bfgs history

[...]

     number of scf cycles    = 186
     number of bfgs steps    = 185

     enthalpy old            =    -142.2701674623 Ry
     enthalpy new            =    -142.2701674682 Ry

     CASE: enthalpy_new < enthalpy_old

     WARNING: bfgs curvature condition failed, Theta= 0.978
     Message from routine bfgs:
     history already reset at previous step: stopping
     small trust_radius: resetting bfgs history

     new trust radius        =       0.0000220705 bohr
     new conv_thr            =       0.0000000100 Ry

     new unit-cell volume =  26092.73944 a.u.^3 (  3866.54501 Ang^3 )
     density =      0.39916 g/cm^3

[...]

ATOMIC_POSITIONS (angstrom)
Al       0.301195422   0.382737407   0.000000000
Al       1.988028541   2.469738244   0.000000000
Al      -1.626782971   5.391382125   0.000000000
Al      -0.662842781   2.887108666   0.000000000
Al      -5.241804173   8.312887832   0.000000000
Al      -2.590840490   7.895626977   0.000000000
Al      -4.519291978  12.904304826   0.000000000
Al      -3.555110683  10.399881999   0.000000000
Al       4.638795556   2.052402496   0.000000000
Al       6.325674995   4.139570801   0.000000000
Al       1.024134476   4.974122274   0.000000000
Al       3.674912418   4.556852118   0.000000000
Al       0.060069442   7.478468612   0.000000000
Al       2.710896314   7.061252999   0.000000000
Al      -1.868456884  12.487055717   0.000000000
Al      -0.904178320   9.982719638   0.000000000
Al       7.289586987   1.635201138   0.000000000
Al       9.940418506   1.218048062   0.000000000
Al       5.361676828   6.643983798   0.000000000
Al       8.976473241   3.722328298   0.000000000
Al       1.746736619   9.565618665   0.000000000
Al       4.397546717   9.148457666   0.000000000
Al       0.782378886  12.069912536   0.000000000
Al       3.433311086  11.652786858   0.000000000
Al      12.591356269   0.800871704   0.000000000
Al      10.663324187   5.809388261   0.000000000
Al      11.627296327   3.305118060   0.000000000
Al       7.048336342   8.731036241   0.000000000
Al       8.012478181   6.226654975   0.000000000
Al       6.084207386  11.235532975   0.000000000
Al       8.735077190  10.818001029   0.000000000

     Writing output data file 26al_planar_2x2_vcr.save/
     Check: negative starting charge=   -0.000131
     NEW-OLD atomic charge density approx. for the potential
     Check: negative starting charge=   -0.000131
     extrapolated charge   93.00002, renormalised to   93.00000

[...]

     Threshold (ethr) on eigenvalues was too large:
     Diagonalizing with lowered threshold

     Davidson diagonalization with overlap
     ethr =  1.45E-10,  avg # of iterations =  5.0

[...]

     bfgs converged in 187 scf cycles and 186 bfgs steps
     (criteria: energy <  1.0E-05 Ry, force <  1.0E-04Ry/Bohr, cell <  5.0E-05kbar)

     End of BFGS Geometry Optimization

     Final enthalpy =    -142.2701674718 Ry
Begin final coordinates
     new unit-cell volume =  26092.73944 a.u.^3 (  3866.54501 Ang^3 )
     density =      0.39916 g/cm^3

CELL_PARAMETERS (alat= 33.68096681)
   0.838290994   0.000041710   0.000000000
  -0.419186209   0.725962916   0.000000000
   0.000000000   0.000000000   1.122132950

ATOMIC_POSITIONS (angstrom)
Al       0.301195422   0.382737407   0.000000000
Al       1.988028541   2.469738244   0.000000000
Al      -1.626782971   5.391382125   0.000000000
Al      -0.662842781   2.887108666   0.000000000
Al      -5.241804173   8.312887832   0.000000000
Al      -2.590840490   7.895626977   0.000000000
Al      -4.519291978  12.904304826   0.000000000
Al      -3.555110683  10.399881999   0.000000000
Al       4.638795556   2.052402496   0.000000000
Al       6.325674995   4.139570801   0.000000000
Al       1.024134476   4.974122274   0.000000000
Al       3.674912418   4.556852118   0.000000000
Al       0.060069442   7.478468612   0.000000000
Al       2.710896314   7.061252999   0.000000000
Al      -1.868456884  12.487055717   0.000000000
Al      -0.904178320   9.982719638   0.000000000
Al       7.289586987   1.635201138   0.000000000
Al       9.940418506   1.218048062   0.000000000
Al       5.361676828   6.643983798   0.000000000
Al       8.976473241   3.722328298   0.000000000
Al       1.746736619   9.565618665   0.000000000
Al       4.397546717   9.148457666   0.000000000
Al       0.782378886  12.069912536   0.000000000
Al       3.433311086  11.652786858   0.000000000
Al      12.591356269   0.800871704   0.000000000
Al      10.663324187   5.809388261   0.000000000
Al      11.627296327   3.305118060   0.000000000
Al       7.048336342   8.731036241   0.000000000
Al       8.012478181   6.226654975   0.000000000
Al       6.084207386  11.235532975   0.000000000
Al       8.735077190  10.818001029   0.000000000
End final coordinates

     Writing output data file 26al_planar_2x2_vcr.save/

     A final scf calculation at the relaxed structure.
     The G-vectors are recalculated for the final unit cell
     Results may differ from those at the preceding step.

     bravais-lattice index     =            4
     lattice parameter (alat)  =      33.6810  a.u.
     unit-cell volume          =   26092.7394 (a.u.)^3
     number of atoms/cell      =           31
     number of atomic types    =            1
     number of electrons       =        93.00
     number of Kohn-Sham states=           56
     kinetic-energy cutoff     =      80.0000  Ry
     charge density cutoff     =     320.0000  Ry
     convergence threshold     =      1.0E-08
     mixing beta               =       0.4000
     number of iterations used =            8  plain     mixing
     Exchange-correlation      = PBE ( 1  4  3  4 0 0)

     celldm(1)=  33.680967  celldm(2)=   0.000000  celldm(3)=   1.122133
     celldm(4)=   0.000000  celldm(5)=   0.000000  celldm(6)=   0.000000

     crystal axes: (cart. coord. in units of alat)
               a(1) = (   0.838291   0.000042   0.000000 )
               a(2) = (  -0.419186   0.725963   0.000000 )
               a(3) = (   0.000000   0.000000   1.122133 )

     reciprocal axes: (cart. coord. in units 2 pi/alat)
               b(1) = (  1.192869  0.688788  0.000000 )
               b(2) = ( -0.000069  1.377441  0.000000 )
               b(3) = (  0.000000  0.000000  0.891160 )

     PseudoPot. # 1 for Al read from file:
     ./Al.upf
     MD5 check sum: 4974d48a734c9d7d1eb6780a1419d19d
     Pseudo is Norm-conserving + core correction, Zval =  3.0
     Generated using ONCVPSP code by D. R. Hamann
     Using radial grid of 1876 points,  6 beta functions with:
                l(1) =   0
                l(2) =   0
                l(3) =   1
                l(4) =   1
                l(5) =   2
                l(6) =   2

     atomic species   valence    mass     pseudopotential
        Al             3.00    29.98200     Al( 1.00)

      2 Sym. Ops. (no inversion) found

   Cartesian axes

     site n.     atom                  positions (alat units)
         1           Al  tau(   1) = (   0.0168991   0.0214741   0.0000000  )
         2           Al  tau(   2) = (   0.1115416   0.1385687   0.0000000  )
         3           Al  tau(   3) = (  -0.0912733   0.3024924   0.0000000  )
         4           Al  tau(   4) = (  -0.0371899   0.1619860   0.0000000  )
         5           Al  tau(   5) = (  -0.2941001   0.4664083   0.0000000  )
         6           Al  tau(   6) = (  -0.1453634   0.4429972   0.0000000  )
         7           Al  tau(   7) = (  -0.2535623   0.7240173   0.0000000  )
         8           Al  tau(   8) = (  -0.1994653   0.5835025   0.0000000  )
         9           Al  tau(   9) = (   0.2602673   0.1151534   0.0000000  )
        10           Al  tau(  10) = (   0.3549124   0.2322574   0.0000000  )
        11           Al  tau(  11) = (   0.0574608   0.2790813   0.0000000  )
        12           Al  tau(  12) = (   0.2061870   0.2556697   0.0000000  )
        13           Al  tau(  13) = (   0.0033703   0.4195918   0.0000000  )
        14           Al  tau(  14) = (   0.1520993   0.3961832   0.0000000  )
        15           Al  tau(  15) = (  -0.1048329   0.7006068   0.0000000  )
        16           Al  tau(  16) = (  -0.0507304   0.5600969   0.0000000  )
        17           Al  tau(  17) = (   0.4089943   0.0917457   0.0000000  )
        18           Al  tau(  18) = (   0.5577236   0.0683406   0.0000000  )
        19           Al  tau(  19) = (   0.3008257   0.3727717   0.0000000  )
        20           Al  tau(  20) = (   0.5036398   0.2088474   0.0000000  )
        21           Al  tau(  21) = (   0.0980035   0.5366948   0.0000000  )
        22           Al  tau(  22) = (   0.2467316   0.5132893   0.0000000  )
        23           Al  tau(  23) = (   0.0438967   0.6772023   0.0000000  )
        24           Al  tau(  24) = (   0.1926316   0.6537988   0.0000000  )
        25           Al  tau(  25) = (   0.7064588   0.0449342   0.0000000  )
        26           Al  tau(  26) = (   0.5982834   0.3259453   0.0000000  )
        27           Al  tau(  27) = (   0.6523686   0.1854391   0.0000000  )
        28           Al  tau(  28) = (   0.3954585   0.4898692   0.0000000  )
        29           Al  tau(  29) = (   0.4495533   0.3493567   0.0000000  )
        30           Al  tau(  30) = (   0.3413645   0.6303881   0.0000000  )
        31           Al  tau(  31) = (   0.4900959   0.6069618   0.0000000  )

     number of k points=     1  Methfessel-Paxton smearing, width (Ry)=  0.0500
                       cart. coord. in units 2pi/alat
        k(    1) = (   0.0000000   0.0000000   0.0000000), wk =   2.0000000

     Initial potential from superposition of free atoms

     starting charge   92.92414, renormalised to   93.00000

     negative rho (up, down):  7.270E-05 0.000E+00
     Starting wfcs are  124 randomized atomic wfcs

     Self-consistent Calculation

[...]

     negative rho (up, down):  3.886E-08 0.000E+00

[...]

     total energy              =    -142.26988385 Ry
     Harris-Foulkes estimate   =    -142.26988385 Ry
     estimated scf accuracy    <       0.00000002 Ry

     iteration # 15     ecut=    80.00 Ry     beta= 0.40
     Davidson diagonalization with overlap
     ethr =  1.71E-11,  avg # of iterations =  5.0

     End of self-consistent calculation

          k = 0.0000 0.0000 0.0000 (315191 PWs)   bands (ev):

   -11.6237 -10.7478 -10.7478 -10.7477 -10.7477 -10.7477 -10.7477  -9.0217
    -9.0216  -9.0216  -9.0216  -9.0216  -9.0216  -8.1738  -8.1738  -8.1738
    -8.1737  -8.1737  -8.1737  -5.7782  -5.7782  -5.7781  -5.7781  -5.7781
    -5.7780  -5.7076  -5.7076  -5.7076  -5.7075  -5.7075  -5.7075  -4.8692
    -4.0234  -4.0234  -4.0233  -4.0233  -4.0233  -4.0233  -3.7523  -3.7523
    -3.7523  -3.7521  -3.7521  -3.7520  -2.3346  -2.3345  -2.3345  -2.3345
    -2.3345  -2.3345  -1.8112  -1.8112  -1.8112  -1.8111  -1.8110  -1.8110

     the Fermi energy is    -2.4051 ev

!    total energy              =    -142.26988385 Ry
     Harris-Foulkes estimate   =    -142.26988386 Ry
     estimated scf accuracy    <          1.2E-09 Ry

     The total energy is the sum of the following terms:

     one-electron contribution =    -702.58373107 Ry
     hartree contribution      =     360.19493596 Ry
     xc contribution           =     -63.84998549 Ry
     ewald contribution        =     264.01556155 Ry
     smearing contrib. (-TS)   =      -0.04666481 Ry

     convergence has been achieved in  15 iterations

     Forces acting on atoms (cartesian axes, Ry/au):

     atom    1 type  1   force =    -0.00000125   -0.00000211    0.00000000
     atom    2 type  1   force =    -0.00000048    0.00000616    0.00000000
     atom    3 type  1   force =     0.00000104    0.00000045    0.00000000
     atom    4 type  1   force =     0.00001081   -0.00000023    0.00000000
     atom    5 type  1   force =    -0.00000152    0.00001018    0.00000000
     atom    6 type  1   force =    -0.00000858    0.00000500    0.00000000
     atom    7 type  1   force =     0.00001385   -0.00000030    0.00000000
     atom    8 type  1   force =     0.00000582    0.00001663    0.00000000
     atom    9 type  1   force =     0.00000109    0.00001190    0.00000000
     atom   10 type  1   force =    -0.00000652   -0.00000238    0.00000000
     atom   11 type  1   force =    -0.00001352    0.00000054    0.00000000
     atom   12 type  1   force =    -0.00000475   -0.00000404    0.00000000
     atom   13 type  1   force =    -0.00000783   -0.00000552    0.00000000
     atom   14 type  1   force =    -0.00000364    0.00000122    0.00000000
     atom   15 type  1   force =     0.00000407   -0.00000659    0.00000000
     atom   16 type  1   force =    -0.00000477    0.00000778    0.00000000
     atom   17 type  1   force =     0.00000244    0.00000739    0.00000000
     atom   18 type  1   force =     0.00001027   -0.00000302    0.00000000
     atom   19 type  1   force =    -0.00000652    0.00000001    0.00000000
     atom   20 type  1   force =    -0.00000512    0.00000035    0.00000000
     atom   21 type  1   force =    -0.00000912   -0.00000002    0.00000000
     atom   22 type  1   force =     0.00000066   -0.00001199    0.00000000
     atom   23 type  1   force =     0.00001777   -0.00000718    0.00000000
     atom   24 type  1   force =     0.00000587   -0.00000547    0.00000000
     atom   25 type  1   force =    -0.00000419   -0.00000988    0.00000000
     atom   26 type  1   force =     0.00000278   -0.00000421    0.00000000
     atom   27 type  1   force =     0.00000724   -0.00000144    0.00000000
     atom   28 type  1   force =     0.00000321    0.00000749    0.00000000
     atom   29 type  1   force =    -0.00000692   -0.00000035    0.00000000
     atom   30 type  1   force =     0.00000392   -0.00001756    0.00000000
     atom   31 type  1   force =    -0.00000610    0.00000720    0.00000000

     Total force =     0.000056     Total SCF correction =     0.000035
     SCF correction compared to forces is large: reduce conv_thr to get better values

     Computing stress (Cartesian axis) and pressure

          total   stress  (Ry/bohr**3)                   (kbar)     P=    0.00
   0.00000005   0.00000001   0.00000000          0.01      0.00      0.00
   0.00000001   0.00000004   0.00000000          0.00      0.01      0.00
   0.00000000   0.00000000  -0.00000002          0.00      0.00     -0.00

     Writing output data file 26al_planar_2x2_vcr.save/

     General routines

     Parallel routines

      31h

   This run was terminated on:   3:43:59  27Nov2020

   JOB DONE.