     Program PWSCF v.6.3MaX starts on 25Nov2020 at 18: 3:56

     R & G space division:  proc/nbgrp/npool/nimage =       8
     Waiting for input...
     Reading input from standard input

     Current dimensions of program PWSCF are:
     Max number of different atomic species (ntypx) = 10
     Max number of k-points (npk) =  40000
     Max angular momentum in pseudopotentials (lmaxx) =  3

     Subspace diagonalization in iterative solution of the eigenvalue problem:
     a serial algorithm will be used

     bravais-lattice index     =            4
     lattice parameter (alat)  =      25.2607  a.u.
     unit-cell volume          =   20885.8003 (a.u.)^3
     number of atoms/cell      =           17
     number of atomic types    =            1
     number of electrons       =        51.00
     number of Kohn-Sham states=           31
     kinetic-energy cutoff     =      80.0000  Ry
     charge density cutoff     =     320.0000  Ry
     convergence threshold     =      1.0E-06
     mixing beta               =       0.4000
     number of iterations used =            8  plain     mixing
     Exchange-correlation      = PBE ( 1  4  3  4 0 0)
     nstep                     =          300

     celldm(1)=  25.260725  celldm(2)=   0.000000  celldm(3)=   1.496177
     celldm(4)=   0.000000  celldm(5)=   0.000000  celldm(6)=   0.000000

     crystal axes: (cart. coord. in units of alat)
               a(1) = (   1.000000   0.000000   0.000000 )
               a(2) = (  -0.500000   0.866025   0.000000 )
               a(3) = (   0.000000   0.000000   1.496177 )

     reciprocal axes: (cart. coord. in units 2 pi/alat)
               b(1) = (  1.000000  0.577350  0.000000 )
               b(2) = (  0.000000  1.154701  0.000000 )
               b(3) = (  0.000000  0.000000  0.668370 )

     PseudoPot. # 1 for Al read from file:
     ./Al.upf
     MD5 check sum: 4974d48a734c9d7d1eb6780a1419d19d
     Pseudo is Norm-conserving + core correction, Zval =  3.0
     Generated using ONCVPSP code by D. R. Hamann
     Using radial grid of 1876 points,  6 beta functions with:
                l(1) =   0
                l(2) =   0
                l(3) =   1
                l(4) =   1
                l(5) =   2
                l(6) =   2

     atomic species   valence    mass     pseudopotential
        Al             3.00    29.98200     Al( 1.00)

      4 Sym. Ops. (no inversion) found ( 2 have fractional translation)

   Cartesian axes

     site n.     atom                  positions (alat units)
         1           Al  tau(   1) = (   0.0000000   0.1924524   0.0000000  )
         2           Al  tau(   2) = (   0.1666687   0.0962261   0.0000000  )
         3           Al  tau(   3) = (   0.3333348   0.1924537   0.0000000  )
         4           Al  tau(   4) = (   0.5000036   0.0962275   0.0000000  )
         5           Al  tau(   5) = (  -0.1666663   0.4811295   0.0000000  )
         6           Al  tau(   6) = (   0.0000024   0.3849033   0.0000000  )
         7           Al  tau(   7) = (   0.1666686   0.4811309   0.0000000  )
         8           Al  tau(   8) = (   0.3333373   0.3849047   0.0000000  )
         9           Al  tau(   9) = (  -0.3333326   0.7698067   0.0000000  )
        10           Al  tau(  10) = (  -0.1666639   0.6735805   0.0000000  )
        11           Al  tau(  11) = (   0.0000023   0.7698081   0.0000000  )
        12           Al  tau(  12) = (   0.1666710   0.6735818   0.0000000  )
        13           Al  tau(  13) = (   0.6666697   0.1924551   0.0000000  )
        14           Al  tau(  14) = (   0.8333384   0.0962289   0.0000000  )
        15           Al  tau(  15) = (   0.5000035   0.4811323   0.0000000  )
        16           Al  tau(  16) = (   0.6666722   0.3849060   0.0000000  )
        17           Al  tau(  17) = (   0.5000059   0.6735832   0.0000000  )

     number of k points=     1  Methfessel-Paxton smearing, width (Ry)=  0.0500
                       cart. coord. in units 2pi/alat
        k(    1) = (   0.0000000   0.0000000   0.0000000), wk =   2.0000000

     Initial potential from superposition of free atoms

     starting charge   50.95840, renormalised to   51.00000

     negative rho (up, down):  5.196E-05 0.000E+00
     Starting wfcs are   68 randomized atomic wfcs

     Self-consistent Calculation

     iteration #  1     ecut=    80.00 Ry     beta= 0.40
     Davidson diagonalization with overlap
     ethr =  1.00E-02,  avg # of iterations =  2.0

     total energy              =     -77.03462208 Ry
     Harris-Foulkes estimate   =     -77.31745082 Ry
     estimated scf accuracy    <       0.79274820 Ry

[...]

     negative rho (up, down):  1.412E-07 0.000E+00

[...]

     End of self-consistent calculation

          k = 0.0000 0.0000 0.0000 (252395 PWs)   bands (ev):

    -9.9967  -9.1547  -9.0982  -9.0980  -9.0600  -9.0597  -8.4090  -7.5384
    -7.4675  -7.4674  -6.7265  -5.8852  -5.8794  -5.8793  -5.6095  -5.6092
    -4.7522  -4.7520  -4.0027  -3.5336  -3.3090  -3.2901  -3.2901  -3.2356
    -3.1478  -3.1136  -3.1133  -3.0992  -3.0989  -2.7514  -2.7512

     the Fermi energy is    -3.1137 ev

!    total energy              =     -77.16211744 Ry
     Harris-Foulkes estimate   =     -77.16211806 Ry
     estimated scf accuracy    <       0.00000073 Ry

     The total energy is the sum of the following terms:

     one-electron contribution =    -269.13915475 Ry
     hartree contribution      =     139.26353076 Ry
     xc contribution           =     -33.51712930 Ry
     ewald contribution        =      86.35186878 Ry
     smearing contrib. (-TS)   =      -0.12123293 Ry

     convergence has been achieved in  14 iterations

[...]

     Forces acting on atoms (cartesian axes, Ry/au):

     atom    1 type  1   force =    -0.00063009    0.00502091    0.00000000
     atom    2 type  1   force =     0.00062378    0.00036014    0.00000000
     atom    3 type  1   force =     0.00001663    0.00000960    0.00000000
     atom    4 type  1   force =    -0.00060169    0.00035644    0.00000000
     atom    5 type  1   force =     0.00000675    0.00000390    0.00000000
     atom    6 type  1   force =     0.00821296   -0.00472530    0.00000000
     atom    7 type  1   force =    -0.00466287   -0.00190559    0.00000000
     atom    8 type  1   force =     0.00000784   -0.00069930    0.00000000
     atom    9 type  1   force =     0.00403319   -0.00305613    0.00000000
     atom   10 type  1   force =     0.00001425    0.00947528    0.00000000
     atom   11 type  1   force =    -0.00398172   -0.00308537    0.00000000
     atom   12 type  1   force =     0.01928881    0.01113640    0.00000000
     atom   13 type  1   force =     0.00062515    0.00502093    0.00000000
     atom   14 type  1   force =    -0.00004414   -0.02229343    0.00000000
     atom   15 type  1   force =     0.00466083   -0.00196907    0.00000000
     atom   16 type  1   force =    -0.00824094   -0.00475791    0.00000000
     atom   17 type  1   force =    -0.01932875    0.01110849    0.00000000

     Total force =     0.043759     Total SCF correction =     0.000611

     Computing stress (Cartesian axis) and pressure

     negative rho (up, down):  4.701E-05 0.000E+00
          total   stress  (Ry/bohr**3)                   (kbar)     P=   -0.80
  -0.00000819   0.00000001   0.00000000         -1.20      0.00      0.00
   0.00000001  -0.00000820   0.00000000          0.00     -1.21      0.00
   0.00000000   0.00000000   0.00000002          0.00      0.00      0.00

     BFGS Geometry Optimization

     number of scf cycles    =   1
     number of bfgs steps    =   0

     enthalpy new            =     -77.1621174358 Ry

     new trust radius        =       0.0222934758 bohr
     new conv_thr            =       0.0000010000 Ry

     new unit-cell volume =  20877.24156 a.u.^3 (  3093.68798 Ang^3 )
     density =      0.27358 g/cm^3

CELL_PARAMETERS (alat= 25.26072511)
   0.999795248   0.000000283   0.000000000
  -0.499897379   0.865847659   0.000000000
   0.000000000   0.000000000   1.496177267

ATOMIC_POSITIONS (angstrom)
Al      -0.000332049   2.574716692   0.000000000
Al       2.227800956   1.286220806   0.000000000
Al       4.454917398   2.572084819   0.000000000
Al       6.682061055   1.286238299   0.000000000
Al      -2.227433669   6.430133453   0.000000000
Al       0.004378768   5.141601364   0.000000000
Al       2.225004232   6.429142654   0.000000000
Al       4.454946153   5.143750846   0.000000000
Al      -4.452740795  10.286585590   0.000000000
Al      -2.227396295   9.007185546   0.000000000
Al      -0.002072777  10.286589568   0.000000000
Al       2.237709730   9.008083847   0.000000000
Al       8.910147806   2.574755608   0.000000000
Al      11.137264489   1.274274413   0.000000000
Al       6.684845571   6.429128522   0.000000000
Al       8.905490435   5.141623010   0.000000000
Al       6.672186840   9.008088526   0.000000000

     Writing output data file 17al_planar_2x2_vcr.save/
     NEW-OLD atomic charge density approx. for the potential

     negative rho (up, down):  4.702E-05 0.000E+00
     extrapolated charge   50.97911, renormalised to   51.00000

[...]

     enthalpy old            =     -77.1621174358 Ry
     enthalpy new            =     -77.1640600328 Ry

     CASE: enthalpy_new < enthalpy_old

     WARNING: bfgs curvature condition failed, Theta= 0.837
     new trust radius        =       0.0334333558 bohr
     new conv_thr            =       0.0000010000 Ry

[...]

     iteration # 21     ecut=    80.00 Ry     beta= 0.40
     Davidson diagonalization with overlap
     c_bands:  1 eigenvalues not converged
     ethr =  1.47E-08,  avg # of iterations = 20.0

[...]

     CASE: enthalpy_new > enthalpy_old

[...]

     Threshold (ethr) on eigenvalues was too large:
     Diagonalizing with lowered threshold

     Davidson diagonalization with overlap
     ethr =  4.29E-08,  avg # of iterations =  6.0

[...]

     WARNING: bfgs curvature condition failed, Theta= 0.458
     new trust radius        =       0.3468747598 bohr
     new conv_thr            =       0.0000010000 Ry

[...]

     iteration #  1     ecut=    80.00 Ry     beta= 0.40
     Davidson diagonalization with overlap
     c_bands:  1 eigenvalues not converged
     ethr =  1.00E-06,  avg # of iterations = 20.0

[...]

     Total force =     0.001115     Total SCF correction =     0.000063

[...]

     Total force =     0.000528     Total SCF correction =     0.000054
     SCF correction compared to forces is large: reduce conv_thr to get better values

[...]

     negative rho (up, down):  5.718E-06 0.000E+00
     extrapolated charge   51.00006, renormalised to   51.00000

[...]

     CASE: enthalpy_new < enthalpy_old

     small trust_radius: resetting bfgs history

     new trust radius        =       0.0000047427 bohr
     new conv_thr            =       0.0000000100 Ry

[...]

     number of scf cycles    = 153
     number of bfgs steps    = 149

     enthalpy old            =     -78.0410752817 Ry
     enthalpy new            =     -78.0410752811 Ry

     CASE: enthalpy_new > enthalpy_old

     new trust radius        =       0.0000003654 bohr

     trust_radius < trust_radius_min

     resetting bfgs history

     Message from routine bfgs:
     history already reset at previous step: stopping
     new conv_thr            =       0.0000000100 Ry

     new unit-cell volume =  15267.64993 a.u.^3 (  2262.43227 Ang^3 )
     density =      0.37410 g/cm^3

[...]

ATOMIC_POSITIONS (angstrom)
Al      -0.561903430   4.107154505   0.000000000
Al      -0.258187287  -0.149065262   0.000000000
Al       1.929922348   1.114283018   0.000000000
Al       4.221034315  -0.093162212   0.000000000
Al      -3.753740361   6.542199525   0.000000000
Al      -1.158437221   6.562726117   0.000000000
Al       1.445762020   6.193491281   0.000000000
Al       2.029829399   3.702139604   0.000000000
Al      -4.266612567  10.523944787   0.000000000
Al      -2.438282931   8.779507485   0.000000000
Al      -1.455986945  11.219491492   0.000000000
Al       0.244633452   8.850660199   0.000000000
Al       6.722086170   1.056486422   0.000000000
Al       8.499563945  -0.932601392   0.000000000
Al       4.275943362   5.293353620   0.000000000
Al       4.309634862   2.488209154   0.000000000
Al       3.442110983   7.827211239   0.000000000

     Writing output data file 17al_planar_2x2_vcr.save/
     NEW-OLD atomic charge density approx. for the potential

[...]

     Threshold (ethr) on eigenvalues was too large:
     Diagonalizing with lowered threshold

     Davidson diagonalization with overlap
     ethr =  1.05E-10,  avg # of iterations =  1.0

[...]

     bfgs converged in 154 scf cycles and 149 bfgs steps
     (criteria: energy <  1.0E-05 Ry, force <  1.0E-04Ry/Bohr, cell <  5.0E-05kbar)

     End of BFGS Geometry Optimization

     Final enthalpy =     -78.0410752811 Ry
Begin final coordinates
     new unit-cell volume =  15267.64993 a.u.^3 (  2262.43227 Ang^3 )
     density =      0.37410 g/cm^3

CELL_PARAMETERS (alat= 25.26072511)
   0.767951775  -0.208160202   0.000000000
  -0.564247910   0.977306049   0.000000000
   0.000000000   0.000000000   1.496177267

ATOMIC_POSITIONS (angstrom)
Al      -0.561903430   4.107154505   0.000000000
Al      -0.258187287  -0.149065262   0.000000000
Al       1.929922348   1.114283018   0.000000000
Al       4.221034315  -0.093162212   0.000000000
Al      -3.753740361   6.542199525   0.000000000
Al      -1.158437221   6.562726117   0.000000000
Al       1.445762020   6.193491281   0.000000000
Al       2.029829399   3.702139604   0.000000000
Al      -4.266612567  10.523944787   0.000000000
Al      -2.438282931   8.779507485   0.000000000
Al      -1.455986945  11.219491492   0.000000000
Al       0.244633452   8.850660199   0.000000000
Al       6.722086170   1.056486422   0.000000000
Al       8.499563945  -0.932601392   0.000000000
Al       4.275943362   5.293353620   0.000000000
Al       4.309634862   2.488209154   0.000000000
Al       3.442110983   7.827211239   0.000000000
End final coordinates

     Writing output data file 17al_planar_2x2_vcr.save/

     A final scf calculation at the relaxed structure.
     The G-vectors are recalculated for the final unit cell
     Results may differ from those at the preceding step.

     bravais-lattice index     =            4
     lattice parameter (alat)  =      25.2607  a.u.
     unit-cell volume          =   15267.6499 (a.u.)^3
     number of atoms/cell      =           17
     number of atomic types    =            1
     number of electrons       =        51.00
     number of Kohn-Sham states=           31
     kinetic-energy cutoff     =      80.0000  Ry
     charge density cutoff     =     320.0000  Ry
     convergence threshold     =      1.0E-08
     mixing beta               =       0.4000
     number of iterations used =            8  plain     mixing
     Exchange-correlation      = PBE ( 1  4  3  4 0 0)

     celldm(1)=  25.260725  celldm(2)=   0.000000  celldm(3)=   1.496177
     celldm(4)=   0.000000  celldm(5)=   0.000000  celldm(6)=   0.000000

     crystal axes: (cart. coord. in units of alat)
               a(1) = (   0.767952  -0.208160   0.000000 )
               a(2) = (  -0.564248   0.977306   0.000000 )
               a(3) = (   0.000000   0.000000   1.496177 )

     reciprocal axes: (cart. coord. in units 2 pi/alat)
               b(1) = (  1.543757  0.891288  0.000000 )
               b(2) = (  0.328811  1.213060  0.000000 )
               b(3) = (  0.000000  0.000000  0.668370 )

     PseudoPot. # 1 for Al read from file:
     ./Al.upf
     MD5 check sum: 4974d48a734c9d7d1eb6780a1419d19d
     Pseudo is Norm-conserving + core correction, Zval =  3.0
     Generated using ONCVPSP code by D. R. Hamann
     Using radial grid of 1876 points,  6 beta functions with:
                l(1) =   0
                l(2) =   0
                l(3) =   1
                l(4) =   1
                l(5) =   2
                l(6) =   2

     atomic species   valence    mass     pseudopotential
        Al             3.00    29.98200     Al( 1.00)

      4 Sym. Ops. (no inversion) found ( 2 have fractional translation)

   Cartesian axes

     site n.     atom                  positions (alat units)
         1           Al  tau(   1) = (  -0.0420354   0.3072516   0.0000000  )
         2           Al  tau(   2) = (  -0.0193147  -0.0111514   0.0000000  )
         3           Al  tau(   3) = (   0.1443753   0.0833582   0.0000000  )
         4           Al  tau(   4) = (   0.3157708  -0.0069694   0.0000000  )
         5           Al  tau(   5) = (  -0.2808130   0.4894145   0.0000000  )
         6           Al  tau(   6) = (  -0.0866614   0.4909501   0.0000000  )
         7           Al  tau(   7) = (   0.1081558   0.4633280   0.0000000  )
         8           Al  tau(   8) = (   0.1518492   0.2769529   0.0000000  )
         9           Al  tau(   9) = (  -0.3191804   0.7872843   0.0000000  )
        10           Al  tau(  10) = (  -0.1824052   0.6567850   0.0000000  )
        11           Al  tau(  11) = (  -0.1089207   0.8393174   0.0000000  )
        12           Al  tau(  12) = (   0.0183008   0.6621078   0.0000000  )
        13           Al  tau(  13) = (   0.5028716   0.0790345   0.0000000  )
        14           Al  tau(  14) = (   0.6358427  -0.0697669   0.0000000  )
        15           Al  tau(  15) = (   0.3198785   0.3959898   0.0000000  )
        16           Al  tau(  16) = (   0.3223989   0.1861401   0.0000000  )
        17           Al  tau(  17) = (   0.2575004   0.5855448   0.0000000  )

     number of k points=     1  Methfessel-Paxton smearing, width (Ry)=  0.0500
                       cart. coord. in units 2pi/alat
        k(    1) = (   0.0000000   0.0000000   0.0000000), wk =   2.0000000

     Initial potential from superposition of free atoms

     starting charge   50.95840, renormalised to   51.00000

     negative rho (up, down):  4.058E-05 0.000E+00
     Starting wfcs are   68 randomized atomic wfcs

     Self-consistent Calculation

[...]

     total energy              =     -78.04097241 Ry
     Harris-Foulkes estimate   =     -78.04097242 Ry
     estimated scf accuracy    <       0.00000002 Ry

     iteration # 14     ecut=    80.00 Ry     beta= 0.40
     Davidson diagonalization with overlap
     ethr =  4.48E-11,  avg # of iterations =  2.0

[...]

     End of self-consistent calculation

          k = 0.0000 0.0000 0.0000 (184583 PWs)   bands (ev):

   -11.1672 -10.1100  -9.9928  -9.7260  -9.6047  -8.8038  -8.7435  -8.3485
    -8.1895  -6.5534  -6.1697  -5.9970  -5.5552  -5.1781  -5.0955  -4.9599
    -4.9200  -4.6904  -4.6125  -4.5998  -4.2912  -4.2519  -3.5143  -3.4581
    -3.2805  -3.2004  -2.3318  -2.2673  -1.9208  -1.8374  -1.4272

     the Fermi energy is    -2.9706 ev

!    total energy              =     -78.04097241 Ry
     Harris-Foulkes estimate   =     -78.04097241 Ry
     estimated scf accuracy    <          6.5E-10 Ry

     The total energy is the sum of the following terms:

     one-electron contribution =    -362.12660201 Ry
     hartree contribution      =     186.05802873 Ry
     xc contribution           =     -34.73878193 Ry
     ewald contribution        =     132.75493756 Ry
     smearing contrib. (-TS)   =       0.01144525 Ry

     convergence has been achieved in  14 iterations

     negative rho (up, down):  5.717E-06 0.000E+00

     Forces acting on atoms (cartesian axes, Ry/au):

     atom    1 type  1   force =     0.00000028    0.00000118    0.00000000
     atom    2 type  1   force =    -0.00000027   -0.00000015    0.00000000
     atom    3 type  1   force =     0.00000345    0.00000199    0.00000000
     atom    4 type  1   force =    -0.00000000   -0.00000035    0.00000000
     atom    5 type  1   force =    -0.00000255   -0.00000147    0.00000000
     atom    6 type  1   force =     0.00000196   -0.00000377    0.00000000
     atom    7 type  1   force =    -0.00000030   -0.00000445    0.00000000
     atom    8 type  1   force =    -0.00000031    0.00000017    0.00000000
     atom    9 type  1   force =     0.00000116   -0.00000035    0.00000000
     atom   10 type  1   force =    -0.00000228    0.00000358    0.00000000
     atom   11 type  1   force =    -0.00000401    0.00000197    0.00000000
     atom   12 type  1   force =    -0.00000262   -0.00000151    0.00000000
     atom   13 type  1   force =     0.00000555   -0.00000079    0.00000000
     atom   14 type  1   force =     0.00000126    0.00000201    0.00000000
     atom   15 type  1   force =     0.00000210    0.00000520    0.00000000
     atom   16 type  1   force =    -0.00000579   -0.00000334    0.00000000
     atom   17 type  1   force =     0.00000237    0.00000008    0.00000000

     Total force =     0.000015     Total SCF correction =     0.000009
     SCF correction compared to forces is large: reduce conv_thr to get better values

     Computing stress (Cartesian axis) and pressure

     negative rho (up, down):  5.717E-06 0.000E+00
          total   stress  (Ry/bohr**3)                   (kbar)     P=    0.00
   0.00000002   0.00000000   0.00000000          0.00      0.00      0.00
   0.00000000   0.00000002   0.00000000          0.00      0.00      0.00
  -0.00000000  -0.00000000  -0.00000001         -0.00     -0.00     -0.00

     Writing output data file 17al_planar_2x2_vcr.save/

     General routines

     Parallel routines

      54h

   This run was terminated on:  22:58: 4  25Nov2020

   JOB DONE.