     Program PWSCF v.6.3MaX starts on 25Nov2020 at 17:58:55

     R & G space division:  proc/nbgrp/npool/nimage =       8
     Waiting for input...
     Reading input from standard input

     Current dimensions of program PWSCF are:
     Max number of different atomic species (ntypx) = 10
     Max number of k-points (npk) =  40000
     Max angular momentum in pseudopotentials (lmaxx) =  3

     Subspace diagonalization in iterative solution of the eigenvalue problem:
     a serial algorithm will be used

     Message from routine find_sym:
     Not a group! Trying with lower acceptance parameter...
     Message from routine find_sym:
     Symmetry operations form a group

     bravais-lattice index     =            4
     lattice parameter (alat)  =      25.2607  a.u.
     unit-cell volume          =   20885.8003 (a.u.)^3
     number of atoms/cell      =           17
     number of atomic types    =            1
     number of electrons       =        51.00
     number of Kohn-Sham states=           31
     kinetic-energy cutoff     =      80.0000  Ry
     charge density cutoff     =     320.0000  Ry
     convergence threshold     =      1.0E-06
     mixing beta               =       0.4000
     number of iterations used =            8  plain     mixing
     Exchange-correlation      = PBE ( 1  4  3  4 0 0)
     nstep                     =          300

     celldm(1)=  25.260725  celldm(2)=   0.000000  celldm(3)=   1.496177
     celldm(4)=   0.000000  celldm(5)=   0.000000  celldm(6)=   0.000000

     crystal axes: (cart. coord. in units of alat)
               a(1) = (   1.000000   0.000000   0.000000 )
               a(2) = (  -0.500000   0.866025   0.000000 )
               a(3) = (   0.000000   0.000000   1.496177 )

     reciprocal axes: (cart. coord. in units 2 pi/alat)
               b(1) = (  1.000000  0.577350  0.000000 )
               b(2) = (  0.000000  1.154701  0.000000 )
               b(3) = (  0.000000  0.000000  0.668370 )

     PseudoPot. # 1 for Al read from file:
     ./Al.upf
     MD5 check sum: 4974d48a734c9d7d1eb6780a1419d19d
     Pseudo is Norm-conserving + core correction, Zval =  3.0
     Generated using ONCVPSP code by D. R. Hamann
     Using radial grid of 1876 points,  6 beta functions with:
                l(1) =   0
                l(2) =   0
                l(3) =   1
                l(4) =   1
                l(5) =   2
                l(6) =   2

     atomic species   valence    mass     pseudopotential
        Al             3.00    29.98200     Al( 1.00)

      2 Sym. Ops. (no inversion) found

   Cartesian axes

     site n.     atom                  positions (alat units)
         1           Al  tau(   1) = (   0.0000000   0.1924524   0.0000000  )
         2           Al  tau(   2) = (   0.1666687   0.0962261   0.0000000  )
         3           Al  tau(   3) = (   0.3333348   0.1924537   0.0000000  )
         4           Al  tau(   4) = (   0.5000036   0.0962275   0.0000000  )
         5           Al  tau(   5) = (  -0.1666663   0.4811295   0.0000000  )
         6           Al  tau(   6) = (   0.0000024   0.3849033   0.0000000  )
         7           Al  tau(   7) = (   0.1666686   0.4811309   0.0000000  )
         8           Al  tau(   8) = (   0.3333373   0.3849047   0.0000000  )
         9           Al  tau(   9) = (  -0.3333326   0.7698067   0.0000000  )
        10           Al  tau(  10) = (  -0.1666639   0.6735805   0.0000000  )
        11           Al  tau(  11) = (   0.0000023   0.7698081   0.0000000  )
        12           Al  tau(  12) = (   0.1666710   0.6735818   0.0000000  )
        13           Al  tau(  13) = (   0.6666697   0.1924551   0.0000000  )
        14           Al  tau(  14) = (   0.8333384   0.0962289   0.0000000  )
        15           Al  tau(  15) = (   0.5000035   0.4811323   0.0000000  )
        16           Al  tau(  16) = (   0.3333372   0.7698094   0.0000000  )
        17           Al  tau(  17) = (   0.5000059   0.6735832   0.0000000  )

     number of k points=     1  Methfessel-Paxton smearing, width (Ry)=  0.0500
                       cart. coord. in units 2pi/alat
        k(    1) = (   0.0000000   0.0000000   0.0000000), wk =   2.0000000

     Initial potential from superposition of free atoms

     starting charge   50.95840, renormalised to   51.00000

     negative rho (up, down):  5.196E-05 0.000E+00
     Starting wfcs are   68 randomized atomic wfcs

     Self-consistent Calculation

     iteration #  1     ecut=    80.00 Ry     beta= 0.40
     Davidson diagonalization with overlap
     ethr =  1.00E-02,  avg # of iterations =  2.0

     total energy              =     -77.03418973 Ry
     Harris-Foulkes estimate   =     -77.31744457 Ry
     estimated scf accuracy    <       0.79357145 Ry

[...]

     End of self-consistent calculation

          k = 0.0000 0.0000 0.0000 (252395 PWs)   bands (ev):

    -9.9965  -9.1543  -9.0981  -9.0980  -9.0598  -9.0596  -8.4088  -7.5383
    -7.4674  -7.4673  -6.7264  -5.8850  -5.8792  -5.8791  -5.6093  -5.6093
    -4.7520  -4.7520  -4.0026  -3.5339  -3.3089  -3.2899  -3.2898  -3.2355
    -3.1475  -3.1134  -3.1133  -3.0990  -3.0989  -2.7512  -2.7511

     the Fermi energy is    -3.1136 ev

!    total energy              =     -77.16212009 Ry
     Harris-Foulkes estimate   =     -77.16212027 Ry
     estimated scf accuracy    <       0.00000020 Ry

     The total energy is the sum of the following terms:

     one-electron contribution =    -269.13901626 Ry
     hartree contribution      =     139.26321798 Ry
     xc contribution           =     -33.51703990 Ry
     ewald contribution        =      86.35193790 Ry
     smearing contrib. (-TS)   =      -0.12121982 Ry

     convergence has been achieved in  15 iterations

     Forces acting on atoms (cartesian axes, Ry/au):

     atom    1 type  1   force =     0.00063101   -0.00035478    0.00000000
     atom    2 type  1   force =     0.00001474    0.00001368    0.00000000
     atom    3 type  1   force =    -0.00060803   -0.00035754    0.00000000
     atom    4 type  1   force =     0.00063023   -0.00500927    0.00000000
     atom    5 type  1   force =    -0.01930131   -0.01113967    0.00000000
     atom    6 type  1   force =     0.00403734    0.00305746    0.00000000
     atom    7 type  1   force =     0.00001858   -0.00951692    0.00000000
     atom    8 type  1   force =    -0.00402658    0.00306390    0.00000000
     atom    9 type  1   force =     0.00002710    0.00070936    0.00000000
     atom   10 type  1   force =     0.00466319    0.00198241    0.00000000
     atom   11 type  1   force =    -0.00823749    0.00475236    0.00000000
     atom   12 type  1   force =    -0.00000561    0.00000414    0.00000000
     atom   13 type  1   force =    -0.00000772    0.02226595    0.00000000
     atom   14 type  1   force =    -0.00065709   -0.00500525    0.00000000
     atom   15 type  1   force =     0.01927493   -0.01113914    0.00000000
     atom   16 type  1   force =     0.00823675    0.00473555    0.00000000
     atom   17 type  1   force =    -0.00469003    0.00193775    0.00000000

     Total force =     0.043755     Total SCF correction =     0.000306

     Computing stress (Cartesian axis) and pressure

          total   stress  (Ry/bohr**3)                   (kbar)     P=   -0.80
  -0.00000821   0.00000000   0.00000000         -1.21      0.00      0.00
   0.00000000  -0.00000820   0.00000000          0.00     -1.21      0.00
   0.00000000   0.00000000   0.00000001          0.00      0.00      0.00

     BFGS Geometry Optimization

     number of scf cycles    =   1
     number of bfgs steps    =   0

     enthalpy new            =     -77.1621200935 Ry

     new trust radius        =       0.0222852594 bohr
     new conv_thr            =       0.0000010000 Ry

     new unit-cell volume =  20877.23015 a.u.^3 (  3093.68629 Ang^3 )
     density =      0.27358 g/cm^3

CELL_PARAMETERS (alat= 25.26072511)
   0.999794630   0.000000109   0.000000000
  -0.499897220   0.865847807   0.000000000
   0.000000000   0.000000000   1.496177267

ATOMIC_POSITIONS (angstrom)
Al       0.000334717   2.571872765   0.000000000
Al       2.227477132   1.286037210   0.000000000
Al       4.454583711   2.571889986   0.000000000
Al       6.682708471   1.283398401   0.000000000
Al      -2.237648698   6.424238581   0.000000000
Al       0.002168685   5.145719342   0.000000000
Al       2.227478554   6.425115806   0.000000000
Al       4.452808022   5.145741426   0.000000000
Al      -4.454859322  10.288579294   0.000000000
Al      -2.224936876   9.003222326   0.000000000
Al      -0.004326148  10.290737000   0.000000000
Al       2.227498713   9.002194368   0.000000000
Al       8.909807024   2.583878047   0.000000000
Al      11.136933094   1.283419208   0.000000000
Al       6.692572184   6.424276224   0.000000000
Al       4.459295557  10.290746787   0.000000000
Al       6.679926039   9.003236061   0.000000000

     Writing output data file 16al_planar_2x2_vcr.save/
     NEW-OLD atomic charge density approx. for the potential

     negative rho (up, down):  3.810E-07 0.000E+00
     extrapolated charge   50.97908, renormalised to   51.00000

[...]

     negative rho (up, down):  1.935E-07 0.000E+00

[...]

     enthalpy old            =     -77.1621200935 Ry
     enthalpy new            =     -77.1640616432 Ry

     CASE: enthalpy_new < enthalpy_old

     WARNING: bfgs curvature condition failed, Theta= 0.838
     new trust radius        =       0.0334210302 bohr
     new conv_thr            =       0.0000010000 Ry

[...]

     CASE: enthalpy_new > enthalpy_old

[...]

     Threshold (ethr) on eigenvalues was too large:
     Diagonalizing with lowered threshold

     Davidson diagonalization with overlap
     ethr =  4.48E-08,  avg # of iterations =  4.0

[...]

     WARNING: bfgs curvature condition failed, Theta= 0.771
     new trust radius        =       0.4356810781 bohr
     new conv_thr            =       0.0000010000 Ry

[...]

     iteration #  1     ecut=    80.00 Ry     beta= 0.40
     Davidson diagonalization with overlap
     c_bands:  2 eigenvalues not converged
     ethr =  1.00E-06,  avg # of iterations = 20.0

[...]

     Total force =     0.000791     Total SCF correction =     0.000085
     SCF correction compared to forces is large: reduce conv_thr to get better values

[...]

     Total force =     0.000426     Total SCF correction =     0.000038

[...]

     negative rho (up, down):  3.842E-08 0.000E+00
     extrapolated charge   50.99997, renormalised to   51.00000

[...]

     CASE: enthalpy_new < enthalpy_old

[...]

     new trust radius        =       0.0003998864 bohr
     new conv_thr            =       0.0000000100 Ry

[...]

     new trust radius        =       0.0000555924 bohr

     trust_radius < trust_radius_min

     resetting bfgs history

     new conv_thr            =       0.0000000100 Ry

[...]

     number of scf cycles    = 235
     number of bfgs steps    = 230

     enthalpy old            =     -78.0594379120 Ry
     enthalpy new            =     -78.0594379089 Ry

     CASE: enthalpy_new > enthalpy_old

     new trust radius        =       0.0000001879 bohr

     trust_radius < trust_radius_min

     resetting bfgs history

     Message from routine bfgs:
     history already reset at previous step: stopping
     new conv_thr            =       0.0000000100 Ry

     new unit-cell volume =  15095.18669 a.u.^3 (  2236.87586 Ang^3 )
     density =      0.37837 g/cm^3

[...]

ATOMIC_POSITIONS (angstrom)
Al      -0.528661721   2.557021396   0.000000000
Al       1.897655452   1.465199368   0.000000000
Al       4.390511866   2.167538302   0.000000000
Al       4.800159867  -0.212677040   0.000000000
Al      -3.750420500   6.164483417   0.000000000
Al      -1.154050199   5.309741164   0.000000000
Al       0.720012970   7.720234201   0.000000000
Al       1.328119337   4.677276299   0.000000000
Al      -5.091863996  11.488335718   0.000000000
Al      -4.446989898   8.818814213   0.000000000
Al      -2.342396360  10.229639250   0.000000000
Al      -1.813381682   7.826832843   0.000000000
Al       7.140041580   0.909080160   0.000000000
Al       7.702349332  -1.890271160   0.000000000
Al       3.861497185   4.570381834   0.000000000
Al       2.576786633   9.840387619   0.000000000
Al       3.202177198   7.087594622   0.000000000

     Writing output data file 16al_planar_2x2_vcr.save/
     NEW-OLD atomic charge density approx. for the potential

[...]

     Threshold (ethr) on eigenvalues was too large:
     Diagonalizing with lowered threshold

     Davidson diagonalization with overlap
     ethr =  1.48E-10,  avg # of iterations =  1.0

[...]

     bfgs converged in 236 scf cycles and 230 bfgs steps
     (criteria: energy <  1.0E-05 Ry, force <  1.0E-04Ry/Bohr, cell <  5.0E-05kbar)

     End of BFGS Geometry Optimization

     Final enthalpy =     -78.0594379059 Ry
Begin final coordinates
     new unit-cell volume =  15095.18669 a.u.^3 (  2236.87586 Ang^3 )
     density =      0.37837 g/cm^3

CELL_PARAMETERS (alat= 25.26072511)
   0.766452832  -0.193456106   0.000000000
  -0.564951135   0.959239785   0.000000000
   0.000000000   0.000000000   1.496177267

ATOMIC_POSITIONS (angstrom)
Al      -0.528661721   2.557021396   0.000000000
Al       1.897655452   1.465199368   0.000000000
Al       4.390511866   2.167538302   0.000000000
Al       4.800159867  -0.212677040   0.000000000
Al      -3.750420500   6.164483417   0.000000000
Al      -1.154050199   5.309741164   0.000000000
Al       0.720012970   7.720234201   0.000000000
Al       1.328119337   4.677276299   0.000000000
Al      -5.091863996  11.488335718   0.000000000
Al      -4.446989898   8.818814213   0.000000000
Al      -2.342396360  10.229639250   0.000000000
Al      -1.813381682   7.826832843   0.000000000
Al       7.140041580   0.909080160   0.000000000
Al       7.702349332  -1.890271160   0.000000000
Al       3.861497185   4.570381834   0.000000000
Al       2.576786633   9.840387619   0.000000000
Al       3.202177198   7.087594622   0.000000000
End final coordinates

     Writing output data file 16al_planar_2x2_vcr.save/

     A final scf calculation at the relaxed structure.
     The G-vectors are recalculated for the final unit cell
     Results may differ from those at the preceding step.

     bravais-lattice index     =            4
     lattice parameter (alat)  =      25.2607  a.u.
     unit-cell volume          =   15095.1867 (a.u.)^3
     number of atoms/cell      =           17
     number of atomic types    =            1
     number of electrons       =        51.00
     number of Kohn-Sham states=           31
     kinetic-energy cutoff     =      80.0000  Ry
     charge density cutoff     =     320.0000  Ry
     convergence threshold     =      1.0E-08
     mixing beta               =       0.4000
     number of iterations used =            8  plain     mixing
     Exchange-correlation      = PBE ( 1  4  3  4 0 0)

     celldm(1)=  25.260725  celldm(2)=   0.000000  celldm(3)=   1.496177
     celldm(4)=   0.000000  celldm(5)=   0.000000  celldm(6)=   0.000000

     crystal axes: (cart. coord. in units of alat)
               a(1) = (   0.766453  -0.193456   0.000000 )
               a(2) = (  -0.564951   0.959240   0.000000 )
               a(3) = (   0.000000   0.000000   1.496177 )

     reciprocal axes: (cart. coord. in units 2 pi/alat)
               b(1) = (  1.532531  0.902595  0.000000 )
               b(2) = (  0.309075  1.224524  0.000000 )
               b(3) = (  0.000000  0.000000  0.668370 )

     PseudoPot. # 1 for Al read from file:
     ./Al.upf
     MD5 check sum: 4974d48a734c9d7d1eb6780a1419d19d
     Pseudo is Norm-conserving + core correction, Zval =  3.0
     Generated using ONCVPSP code by D. R. Hamann
     Using radial grid of 1876 points,  6 beta functions with:
                l(1) =   0
                l(2) =   0
                l(3) =   1
                l(4) =   1
                l(5) =   2
                l(6) =   2

     atomic species   valence    mass     pseudopotential
        Al             3.00    29.98200     Al( 1.00)

      2 Sym. Ops. (no inversion) found

   Cartesian axes

     site n.     atom                  positions (alat units)
         1           Al  tau(   1) = (  -0.0395486   0.1912879   0.0000000  )
         2           Al  tau(   2) = (   0.1419614   0.1096099   0.0000000  )
         3           Al  tau(   3) = (   0.3284492   0.1621511   0.0000000  )
         4           Al  tau(   4) = (   0.3590945  -0.0159101   0.0000000  )
         5           Al  tau(   5) = (  -0.2805647   0.4611580   0.0000000  )
         6           Al  tau(   6) = (  -0.0863332   0.3972157   0.0000000  )
         7           Al  tau(   7) = (   0.0538634   0.5775419   0.0000000  )
         8           Al  tau(   8) = (   0.0993551   0.3499017   0.0000000  )
         9           Al  tau(   9) = (  -0.3809166   0.8594293   0.0000000  )
        10           Al  tau(  10) = (  -0.3326743   0.6597255   0.0000000  )
        11           Al  tau(  11) = (  -0.1752320   0.7652677   0.0000000  )
        12           Al  tau(  12) = (  -0.1356570   0.5855165   0.0000000  )
        13           Al  tau(  13) = (   0.5341384   0.0680073   0.0000000  )
        14           Al  tau(  14) = (   0.5762040  -0.1414090   0.0000000  )
        15           Al  tau(  15) = (   0.2888742   0.3419051   0.0000000  )
        16           Al  tau(  16) = (   0.1927665   0.7361482   0.0000000  )
        17           Al  tau(  17) = (   0.2395512   0.5302149   0.0000000  )

     number of k points=     1  Methfessel-Paxton smearing, width (Ry)=  0.0500
                       cart. coord. in units 2pi/alat
        k(    1) = (   0.0000000   0.0000000   0.0000000), wk =   2.0000000

     Initial potential from superposition of free atoms

     starting charge   50.95840, renormalised to   51.00000

     negative rho (up, down):  4.033E-05 0.000E+00
     Starting wfcs are   68 randomized atomic wfcs

     Self-consistent Calculation

     iteration #  1     ecut=    80.00 Ry     beta= 0.40
     Davidson diagonalization with overlap
     c_bands:  1 eigenvalues not converged
     ethr =  1.00E-06,  avg # of iterations = 20.0

[...]

     negative rho (up, down):  1.214E-08 0.000E+00

[...]

     total energy              =     -78.05931607 Ry
     Harris-Foulkes estimate   =     -78.05931608 Ry
     estimated scf accuracy    <       0.00000001 Ry

     iteration # 15     ecut=    80.00 Ry     beta= 0.40
     Davidson diagonalization with overlap
     ethr =  2.67E-11,  avg # of iterations =  2.0

     End of self-consistent calculation

          k = 0.0000 0.0000 0.0000 (182431 PWs)   bands (ev):

   -11.2072  -9.9747  -9.9326  -9.8261  -9.7395  -8.5717  -8.5418  -8.5032
    -8.3702  -6.2254  -6.1817  -6.0106  -5.8830  -5.2044  -5.0575  -4.9611
    -4.8408  -4.7430  -4.6261  -4.3620  -4.1934  -4.1545  -3.4194  -3.4117
    -3.3406  -3.2479  -2.1193  -2.1016  -2.0942  -1.9541  -1.2649

     the Fermi energy is    -2.9709 ev

!    total energy              =     -78.05931607 Ry
     Harris-Foulkes estimate   =     -78.05931607 Ry
     estimated scf accuracy    <          2.2E-09 Ry

     The total energy is the sum of the following terms:

     one-electron contribution =    -366.23175521 Ry
     hartree contribution      =     188.17145870 Ry
     xc contribution           =     -34.77975229 Ry
     ewald contribution        =     134.76253753 Ry
     smearing contrib. (-TS)   =       0.01819520 Ry

     convergence has been achieved in  15 iterations

     Forces acting on atoms (cartesian axes, Ry/au):

     atom    1 type  1   force =    -0.00000007   -0.00000122    0.00000000
     atom    2 type  1   force =    -0.00000614   -0.00000233    0.00000000
     atom    3 type  1   force =     0.00000093   -0.00000595    0.00000000
     atom    4 type  1   force =    -0.00000266    0.00000162    0.00000000
     atom    5 type  1   force =    -0.00000326    0.00000061    0.00000000
     atom    6 type  1   force =    -0.00000054    0.00000430    0.00000000
     atom    7 type  1   force =     0.00000187    0.00000030    0.00000000
     atom    8 type  1   force =     0.00000123   -0.00000091    0.00000000
     atom    9 type  1   force =    -0.00000243   -0.00000216    0.00000000
     atom   10 type  1   force =    -0.00000085    0.00000218    0.00000000
     atom   11 type  1   force =     0.00000149    0.00000246    0.00000000
     atom   12 type  1   force =     0.00000050    0.00000188    0.00000000
     atom   13 type  1   force =     0.00000542   -0.00000001    0.00000000
     atom   14 type  1   force =     0.00000216    0.00000020    0.00000000
     atom   15 type  1   force =    -0.00000350    0.00000188    0.00000000
     atom   16 type  1   force =     0.00000275    0.00000291    0.00000000
     atom   17 type  1   force =     0.00000312   -0.00000577    0.00000000

     Total force =     0.000016     Total SCF correction =     0.000040
     SCF correction compared to forces is large: reduce conv_thr to get better values

     Computing stress (Cartesian axis) and pressure

          total   stress  (Ry/bohr**3)                   (kbar)     P=    0.00
   0.00000003  -0.00000000   0.00000000          0.00     -0.00      0.00
  -0.00000000   0.00000003   0.00000000         -0.00      0.00      0.00
   0.00000000   0.00000000  -0.00000001          0.00      0.00     -0.00

     Writing output data file 16al_planar_2x2_vcr.save/

     General routines

     Parallel routines

      33h

   This run was terminated on:   0:32:25  26Nov2020

   JOB DONE.