     Program PWSCF v.6.3MaX starts on 26Nov2020 at  0:32:31

     R & G space division:  proc/nbgrp/npool/nimage =       8
     Waiting for input...
     Reading input from standard input

     Current dimensions of program PWSCF are:
     Max number of different atomic species (ntypx) = 10
     Max number of k-points (npk) =  40000
     Max angular momentum in pseudopotentials (lmaxx) =  3

     Subspace diagonalization in iterative solution of the eigenvalue problem:
     a serial algorithm will be used

     Message from routine find_sym:
     Not a group! Trying with lower acceptance parameter...
     Message from routine find_sym:
     Symmetry operations form a group

     bravais-lattice index     =            4
     lattice parameter (alat)  =      33.6810  a.u.
     unit-cell volume          =   37130.3117 (a.u.)^3
     number of atoms/cell      =           31
     number of atomic types    =            1
     number of electrons       =        93.00
     number of Kohn-Sham states=           56
     kinetic-energy cutoff     =      80.0000  Ry
     charge density cutoff     =     320.0000  Ry
     convergence threshold     =      1.0E-06
     mixing beta               =       0.4000
     number of iterations used =            8  plain     mixing
     Exchange-correlation      = PBE ( 1  4  3  4 0 0)
     nstep                     =          300

     celldm(1)=  33.680967  celldm(2)=   0.000000  celldm(3)=   1.122133
     celldm(4)=   0.000000  celldm(5)=   0.000000  celldm(6)=   0.000000

     crystal axes: (cart. coord. in units of alat)
               a(1) = (   1.000000   0.000000   0.000000 )
               a(2) = (  -0.500000   0.866025   0.000000 )
               a(3) = (   0.000000   0.000000   1.122133 )

     reciprocal axes: (cart. coord. in units 2 pi/alat)
               b(1) = (  1.000000  0.577350  0.000000 )
               b(2) = (  0.000000  1.154701  0.000000 )
               b(3) = (  0.000000  0.000000  0.891160 )

     PseudoPot. # 1 for Al read from file:
     ./Al.upf
     MD5 check sum: 4974d48a734c9d7d1eb6780a1419d19d
     Pseudo is Norm-conserving + core correction, Zval =  3.0
     Generated using ONCVPSP code by D. R. Hamann
     Using radial grid of 1876 points,  6 beta functions with:
                l(1) =   0
                l(2) =   0
                l(3) =   1
                l(4) =   1
                l(5) =   2
                l(6) =   2

     atomic species   valence    mass     pseudopotential
        Al             3.00    29.98200     Al( 1.00)

      2 Sym. Ops. (no inversion) found

   Cartesian axes

     site n.     atom                  positions (alat units)
         1           Al  tau(   1) = (  -0.0000000   0.1443393   0.0000000  )
         2           Al  tau(   2) = (   0.1250015   0.0721696   0.0000000  )
         3           Al  tau(   3) = (  -0.1249997   0.3608472   0.0000000  )
         4           Al  tau(   4) = (   0.0000018   0.2886775   0.0000000  )
         5           Al  tau(   5) = (  -0.2499994   0.5773550   0.0000000  )
         6           Al  tau(   6) = (  -0.1249979   0.5051854   0.0000000  )
         7           Al  tau(   7) = (  -0.3749991   0.7938629   0.0000000  )
         8           Al  tau(   8) = (  -0.2499976   0.7216932   0.0000000  )
         9           Al  tau(   9) = (   0.2500011   0.1443403   0.0000000  )
        10           Al  tau(  10) = (   0.3750027   0.0721706   0.0000000  )
        11           Al  tau(  11) = (   0.1250014   0.3608482   0.0000000  )
        12           Al  tau(  12) = (   0.2500030   0.2886785   0.0000000  )
        13           Al  tau(  13) = (   0.1250033   0.5051864   0.0000000  )
        14           Al  tau(  14) = (  -0.1249980   0.7938639   0.0000000  )
        15           Al  tau(  15) = (   0.0000036   0.7216942   0.0000000  )
        16           Al  tau(  16) = (   0.5000023   0.1443413   0.0000000  )
        17           Al  tau(  17) = (   0.6250038   0.0721717   0.0000000  )
        18           Al  tau(  18) = (   0.3750026   0.3608492   0.0000000  )
        19           Al  tau(  19) = (   0.5000041   0.2886795   0.0000000  )
        20           Al  tau(  20) = (   0.2500029   0.5773571   0.0000000  )
        21           Al  tau(  21) = (   0.3750044   0.5051874   0.0000000  )
        22           Al  tau(  22) = (   0.1250032   0.7938649   0.0000000  )
        23           Al  tau(  23) = (   0.2500047   0.7216953   0.0000000  )
        24           Al  tau(  24) = (   0.7500035   0.1443423   0.0000000  )
        25           Al  tau(  25) = (   0.8750050   0.0721727   0.0000000  )
        26           Al  tau(  26) = (   0.6250038   0.3608502   0.0000000  )
        27           Al  tau(  27) = (   0.7500053   0.2886805   0.0000000  )
        28           Al  tau(  28) = (   0.5000041   0.5773581   0.0000000  )
        29           Al  tau(  29) = (   0.6250056   0.5051884   0.0000000  )
        30           Al  tau(  30) = (   0.3750044   0.7938660   0.0000000  )
        31           Al  tau(  31) = (   0.5000059   0.7216963   0.0000000  )

     number of k points=     1  Methfessel-Paxton smearing, width (Ry)=  0.0500
                       cart. coord. in units 2pi/alat
        k(    1) = (   0.0000000   0.0000000   0.0000000), wk =   2.0000000

     Initial potential from superposition of free atoms

     starting charge   92.92414, renormalised to   93.00000

     negative rho (up, down):  9.278E-05 0.000E+00
     Starting wfcs are  124 randomized atomic wfcs

     Self-consistent Calculation

     iteration #  1     ecut=    80.00 Ry     beta= 0.40
     Davidson diagonalization with overlap
     ethr =  1.00E-02,  avg # of iterations =  2.0

     total energy              =    -140.64176742 Ry
     Harris-Foulkes estimate   =    -141.23595506 Ry
     estimated scf accuracy    <       1.54918100 Ry

[...]

     End of self-consistent calculation

          k = 0.0000 0.0000 0.0000 (448403 PWs)   bands (ev):

    -9.9529  -9.4484  -9.4330  -9.4329  -9.4258  -9.4257  -9.1459  -8.4047
    -8.4047  -8.3882  -8.3881  -8.3798  -8.3032  -8.2570  -8.2570  -7.5865
    -6.9324  -6.9323  -6.8232  -6.4865  -6.4772  -6.4771  -6.3702  -6.3700
    -5.4641  -4.8434  -4.8434  -4.8368  -4.7356  -4.7355  -4.4780  -4.4680
    -4.4428  -4.4427  -4.1225  -4.1224  -3.9779  -3.4712  -3.4688  -3.4687
    -3.4576  -3.4575  -3.4018  -3.2744  -3.2743  -3.2224  -3.2075  -2.9743
    -2.9653  -2.9653  -2.9389  -2.5198  -2.5196  -2.4493  -2.4488  -2.4315

     the Fermi energy is    -3.0910 ev

!    total energy              =    -140.93611327 Ry
     Harris-Foulkes estimate   =    -140.93611411 Ry
     estimated scf accuracy    <       0.00000090 Ry

     The total energy is the sum of the following terms:

     one-electron contribution =    -502.03550612 Ry
     hartree contribution      =     259.76235898 Ry
     xc contribution           =     -61.33566636 Ry
     ewald contribution        =     162.75369137 Ry
     smearing contrib. (-TS)   =      -0.08099113 Ry

     convergence has been achieved in  17 iterations

     Forces acting on atoms (cartesian axes, Ry/au):

     atom    1 type  1   force =     0.00002245   -0.00129087    0.00000000
     atom    2 type  1   force =     0.00044591    0.00027560    0.00000000
     atom    3 type  1   force =     0.00063893   -0.00328110    0.00000000
     atom    4 type  1   force =    -0.00000919    0.00129882    0.00000000
     atom    5 type  1   force =    -0.00254219    0.00220177    0.00000000
     atom    6 type  1   force =     0.01311201    0.00756277    0.00000000
     atom    7 type  1   force =    -0.00108124    0.00063198    0.00000000
     atom    8 type  1   force =     0.00112880   -0.00063502    0.00000000
     atom    9 type  1   force =     0.00201857    0.00115528    0.00000000
     atom   10 type  1   force =    -0.00157221   -0.00517658    0.00000000
     atom   11 type  1   force =    -0.00061547   -0.00331487    0.00000000
     atom   12 type  1   force =    -0.00530883    0.00123094    0.00000000
     atom   13 type  1   force =    -0.01312568    0.00757806    0.00000000
     atom   14 type  1   force =    -0.00318410    0.00107585    0.00000000
     atom   15 type  1   force =    -0.00001082   -0.01513709    0.00000000
     atom   16 type  1   force =    -0.00000009    0.00215470    0.00000000
     atom   17 type  1   force =     0.00156452   -0.00517390    0.00000000
     atom   18 type  1   force =     0.00187917   -0.00106806    0.00000000
     atom   19 type  1   force =     0.00001587   -0.00000402    0.00000000
     atom   20 type  1   force =     0.00256005    0.00217908    0.00000000
     atom   21 type  1   force =    -0.00371952    0.00396169    0.00000000
     atom   22 type  1   force =     0.00316531    0.00108694    0.00000000
     atom   23 type  1   force =    -0.00113153   -0.00063379    0.00000000
     atom   24 type  1   force =    -0.00201280    0.00117666    0.00000000
     atom   25 type  1   force =    -0.00046674    0.00028097    0.00000000
     atom   26 type  1   force =    -0.00186222   -0.00107730    0.00000000
     atom   27 type  1   force =     0.00525876    0.00122729    0.00000000
     atom   28 type  1   force =     0.00001202   -0.00232632    0.00000000
     atom   29 type  1   force =     0.00370973    0.00395034    0.00000000
     atom   30 type  1   force =     0.00114178    0.00061326    0.00000000
     atom   31 type  1   force =    -0.00003124   -0.00052309    0.00000000

     Total force =     0.031191     Total SCF correction =     0.000759

     Computing stress (Cartesian axis) and pressure

          total   stress  (Ry/bohr**3)                   (kbar)     P=   -0.57
  -0.00000579   0.00000002   0.00000000         -0.85      0.00      0.00
   0.00000002  -0.00000578   0.00000000          0.00     -0.85      0.00
   0.00000000   0.00000000  -0.00000000          0.00      0.00     -0.00

     BFGS Geometry Optimization

     number of scf cycles    =   1
     number of bfgs steps    =   0

     enthalpy new            =    -140.9361132673 Ry

     new trust radius        =       0.0151562051 bohr
     new conv_thr            =       0.0000010000 Ry

     new unit-cell volume =  37119.57627 a.u.^3 (  5500.55363 Ang^3 )
     density =      0.28059 g/cm^3

CELL_PARAMETERS (alat= 33.68096681)
   0.999855239   0.000000413   0.000000000
  -0.499927262   0.865900153   0.000000000
   0.000000000   0.000000000   1.122132950

ATOMIC_POSITIONS (angstrom)
Al       0.000012355   2.571533419   0.000000000
Al       2.227840688   1.286254439   0.000000000
Al      -2.227232002   6.428785396   0.000000000
Al       0.000029355   5.145100834   0.000000000
Al      -4.456485674  10.289991394   0.000000000
Al      -2.220598747   9.006720108   0.000000000
Al      -6.683283221  14.147465823   0.000000000
Al      -4.454509609  12.860687660   0.000000000
Al       4.456244269   2.572847710   0.000000000
Al       6.681948662   1.283389721   0.000000000
Al       2.227280060   6.428787556   0.000000000
Al       4.452401080   5.145084952   0.000000000
Al       2.220694641   9.006748224   0.000000000
Al      -2.229220080  14.147720711   0.000000000
[...]
     c_bands:  1 eigenvalues not converged
     ethr =  1.00E-06,  avg # of iterations = 20.0

[...]

     Writing output data file 13al_planar_2x2_vcr.save/
     NEW-OLD atomic charge density approx. for the potential

[...]

     Writing output data file 13al_planar_2x2_vcr.save/
     NEW-OLD atomic charge density approx. for the potential
     Check: negative starting charge=   -0.000121

[...]

     Writing output data file 13al_planar_2x2_vcr.save/
     Check: negative starting charge=   -0.000121
     NEW-OLD atomic charge density approx. for the potential
     Check: negative starting charge=   -0.000133

[...]

     WARNING: bfgs curvature condition failed, Theta= 0.500
     new trust radius        =       0.8000000000 bohr
     new conv_thr            =       0.0000010000 Ry

[...]

     CASE: enthalpy_new > enthalpy_old

[...]

     Threshold (ethr) on eigenvalues was too large:
     Diagonalizing with lowered threshold

     Davidson diagonalization with overlap
     ethr =  6.80E-08,  avg # of iterations =  7.0

[...]

     iteration #  1     ecut=    80.00 Ry     beta= 0.40
     Davidson diagonalization with overlap
     c_bands:  1 eigenvalues not converged
     ethr =  1.00E-06,  avg # of iterations = 20.0

[...]

     Total force =     0.000476     Total SCF correction =     0.000045

[...]

     Total force =     0.000347     Total SCF correction =     0.000050
     SCF correction compared to forces is large: reduce conv_thr to get better values

[...]

     Writing output data file 13al_planar_2x2_vcr.save/
     Check: negative starting charge=   -0.000131
     NEW-OLD atomic charge density approx. for the potential
     Check: negative starting charge=   -0.000131
     extrapolated charge   92.99998, renormalised to   93.00000

[...]

     negative rho (up, down):  1.250E-08 0.000E+00
     extrapolated charge   92.99996, renormalised to   93.00000

[...]

     CASE: enthalpy_new < enthalpy_old

     small trust_radius: resetting bfgs history

     new trust radius        =       0.0000133004 bohr
     new conv_thr            =       0.0000000100 Ry

[...]

     Writing output data file 13al_planar_2x2_vcr.save/
     Check: negative starting charge=   -0.000131
     NEW-OLD atomic charge density approx. for the potential
     Check: negative starting charge=   -0.000131
     extrapolated charge   93.00001, renormalised to   93.00000

[...]

     number of scf cycles    = 179
     number of bfgs steps    = 176

     enthalpy old            =    -142.2701675000 Ry
     enthalpy new            =    -142.2701674948 Ry

     CASE: enthalpy_new > enthalpy_old

     new trust radius        =       0.0000016126 bohr

     trust_radius < trust_radius_min

     resetting bfgs history

     Message from routine bfgs:
     history already reset at previous step: stopping
     new conv_thr            =       0.0000000100 Ry

     new unit-cell volume =  26092.78732 a.u.^3 (  3866.55211 Ang^3 )
     density =      0.39916 g/cm^3

[...]

ATOMIC_POSITIONS (angstrom)
Al      -0.240756765   0.974057332   0.000000000
Al       2.410125371   1.390930979   0.000000000
Al      -0.962745798   5.565595833   0.000000000
Al       0.723697615   3.478257226   0.000000000
Al      -4.335817311   9.740151233   0.000000000
Al      -2.649297195   7.652826763   0.000000000
Al      -6.022322293  11.827477321   0.000000000
Al      -3.371419173  12.244372080   0.000000000
Al       6.025456961   4.312021729   0.000000000
Al       5.061060784   1.807788761   0.000000000
Al       1.688136443   5.982530947   0.000000000
Al       3.374561028   3.895133068   0.000000000
Al       0.001619276   8.069812053   0.000000000
Al      -0.720504416  12.661287824   0.000000000
Al      -1.684917411  10.157036588   0.000000000
Al       7.711965003   2.224734365   0.000000000
Al       9.398457544   0.137408462   0.000000000
Al       4.339000782   6.399369895   0.000000000
Al       8.676421162   4.728919077   0.000000000
Al       2.652526774   8.486757565   0.000000000
Al       5.303452952   8.903551347   0.000000000
Al       0.965996750  10.574007793   0.000000000
Al       3.616980232  10.990895274   0.000000000
Al      10.362892735   2.641610031   0.000000000
Al      12.049395989   0.554310189   0.000000000
Al      11.327373595   5.145791611   0.000000000
Al      13.013815954   3.058496818   0.000000000
Al       6.989920207   6.816206388   0.000000000
Al       9.640817680   7.233078393   0.000000000
Al       6.267869155  11.407771412   0.000000000
Al       7.954353955   9.320436114   0.000000000

     Writing output data file 13al_planar_2x2_vcr.save/
     Check: negative starting charge=   -0.000131
     NEW-OLD atomic charge density approx. for the potential
     Check: negative starting charge=   -0.000131

[...]

     Threshold (ethr) on eigenvalues was too large:
     Diagonalizing with lowered threshold

     Davidson diagonalization with overlap
     ethr =  3.89E-10,  avg # of iterations =  1.0

[...]

     bfgs converged in 180 scf cycles and 176 bfgs steps
     (criteria: energy <  1.0E-05 Ry, force <  1.0E-04Ry/Bohr, cell <  5.0E-05kbar)

     End of BFGS Geometry Optimization

     Final enthalpy =    -142.2701674968 Ry
Begin final coordinates
     new unit-cell volume =  26092.78732 a.u.^3 (  3866.55211 Ang^3 )
     density =      0.39916 g/cm^3

CELL_PARAMETERS (alat= 33.68096681)
   0.838293523  -0.000160644   0.000000000
  -0.419007148   0.726063210   0.000000000
   0.000000000   0.000000000   1.122132950

ATOMIC_POSITIONS (angstrom)
Al      -0.240756765   0.974057332   0.000000000
Al       2.410125371   1.390930979   0.000000000
Al      -0.962745798   5.565595833   0.000000000
Al       0.723697615   3.478257226   0.000000000
Al      -4.335817311   9.740151233   0.000000000
Al      -2.649297195   7.652826763   0.000000000
Al      -6.022322293  11.827477321   0.000000000
Al      -3.371419173  12.244372080   0.000000000
Al       6.025456961   4.312021729   0.000000000
Al       5.061060784   1.807788761   0.000000000
Al       1.688136443   5.982530947   0.000000000
Al       3.374561028   3.895133068   0.000000000
Al       0.001619276   8.069812053   0.000000000
Al      -0.720504416  12.661287824   0.000000000
Al      -1.684917411  10.157036588   0.000000000
Al       7.711965003   2.224734365   0.000000000
Al       9.398457544   0.137408462   0.000000000
Al       4.339000782   6.399369895   0.000000000
Al       8.676421162   4.728919077   0.000000000
Al       2.652526774   8.486757565   0.000000000
Al       5.303452952   8.903551347   0.000000000
Al       0.965996750  10.574007793   0.000000000
Al       3.616980232  10.990895274   0.000000000
Al      10.362892735   2.641610031   0.000000000
Al      12.049395989   0.554310189   0.000000000
Al      11.327373595   5.145791611   0.000000000
Al      13.013815954   3.058496818   0.000000000
Al       6.989920207   6.816206388   0.000000000
Al       9.640817680   7.233078393   0.000000000
Al       6.267869155  11.407771412   0.000000000
Al       7.954353955   9.320436114   0.000000000
End final coordinates

     Writing output data file 13al_planar_2x2_vcr.save/

     A final scf calculation at the relaxed structure.
     The G-vectors are recalculated for the final unit cell
     Results may differ from those at the preceding step.

     bravais-lattice index     =            4
     lattice parameter (alat)  =      33.6810  a.u.
     unit-cell volume          =   26092.7873 (a.u.)^3
     number of atoms/cell      =           31
     number of atomic types    =            1
     number of electrons       =        93.00
     number of Kohn-Sham states=           56
     kinetic-energy cutoff     =      80.0000  Ry
     charge density cutoff     =     320.0000  Ry
     convergence threshold     =      1.0E-08
     mixing beta               =       0.4000
     number of iterations used =            8  plain     mixing
     Exchange-correlation      = PBE ( 1  4  3  4 0 0)

     celldm(1)=  33.680967  celldm(2)=   0.000000  celldm(3)=   1.122133
     celldm(4)=   0.000000  celldm(5)=   0.000000  celldm(6)=   0.000000

     crystal axes: (cart. coord. in units of alat)
               a(1) = (   0.838294  -0.000161   0.000000 )
               a(2) = (  -0.419007   0.726063   0.000000 )
               a(3) = (   0.000000   0.000000   1.122133 )

     reciprocal axes: (cart. coord. in units 2 pi/alat)
               b(1) = (  1.193032  0.688492  0.000000 )
               b(2) = (  0.000264  1.377443  0.000000 )
               b(3) = (  0.000000  0.000000  0.891160 )

     PseudoPot. # 1 for Al read from file:
     ./Al.upf
     MD5 check sum: 4974d48a734c9d7d1eb6780a1419d19d
     Pseudo is Norm-conserving + core correction, Zval =  3.0
     Generated using ONCVPSP code by D. R. Hamann
     Using radial grid of 1876 points,  6 beta functions with:
                l(1) =   0
                l(2) =   0
                l(3) =   1
                l(4) =   1
                l(5) =   2
                l(6) =   2

     atomic species   valence    mass     pseudopotential
        Al             3.00    29.98200     Al( 1.00)

      2 Sym. Ops. (no inversion) found

   Cartesian axes

     site n.     atom                  positions (alat units)
         1           Al  tau(   1) = (  -0.0135081   0.0546511   0.0000000  )
         2           Al  tau(   2) = (   0.1352241   0.0780405   0.0000000  )
         3           Al  tau(   3) = (  -0.0540164   0.3122669   0.0000000  )
         4           Al  tau(   4) = (   0.0406042   0.1951534   0.0000000  )
         5           Al  tau(   5) = (  -0.2432682   0.5464872   0.0000000  )
         6           Al  tau(   6) = (  -0.1486432   0.4293745   0.0000000  )
         7           Al  tau(   7) = (  -0.3378923   0.6636001   0.0000000  )
         8           Al  tau(   8) = (  -0.1891590   0.6869907   0.0000000  )
         9           Al  tau(   9) = (   0.3380682   0.2419331   0.0000000  )
        10           Al  tau(  10) = (   0.2839592   0.1014290   0.0000000  )
        11           Al  tau(  11) = (   0.0947157   0.3356598   0.0000000  )
        12           Al  tau(  12) = (   0.1893353   0.2185429   0.0000000  )
        13           Al  tau(  13) = (   0.0000909   0.4527701   0.0000000  )
        14           Al  tau(  14) = (  -0.0404251   0.7103824   0.0000000  )
        15           Al  tau(  15) = (  -0.0945351   0.5698773   0.0000000  )
        16           Al  tau(  16) = (   0.4326925   0.1248224   0.0000000  )
        17           Al  tau(  17) = (   0.5273159   0.0077095   0.0000000  )
        18           Al  tau(  18) = (   0.2434468   0.3590472   0.0000000  )
        19           Al  tau(  19) = (   0.4868049   0.2653238   0.0000000  )
        20           Al  tau(  20) = (   0.1488244   0.4761635   0.0000000  )
        21           Al  tau(  21) = (   0.2975590   0.4995484   0.0000000  )
        22           Al  tau(  22) = (   0.0541988   0.5932721   0.0000000  )
        23           Al  tau(  23) = (   0.2029366   0.6166623   0.0000000  )
        24           Al  tau(  24) = (   0.5814272   0.1482119   0.0000000  )
        25           Al  tau(  25) = (   0.6760512   0.0311005   0.0000000  )
        26           Al  tau(  26) = (   0.6355410   0.2887131   0.0000000  )
        27           Al  tau(  27) = (   0.7301616   0.1716020   0.0000000  )
        28           Al  tau(  28) = (   0.3921810   0.3824345   0.0000000  )
        29           Al  tau(  29) = (   0.5409140   0.4058238   0.0000000  )
        30           Al  tau(  30) = (   0.3516691   0.6400518   0.0000000  )
        31           Al  tau(  31) = (   0.4462921   0.5229384   0.0000000  )

     number of k points=     1  Methfessel-Paxton smearing, width (Ry)=  0.0500
                       cart. coord. in units 2pi/alat
        k(    1) = (   0.0000000   0.0000000   0.0000000), wk =   2.0000000

     Initial potential from superposition of free atoms

     starting charge   92.92414, renormalised to   93.00000

     negative rho (up, down):  7.270E-05 0.000E+00
     Starting wfcs are  124 randomized atomic wfcs

     Self-consistent Calculation

[...]

     negative rho (up, down):  3.830E-08 0.000E+00

[...]

     total energy              =    -142.26988386 Ry
     Harris-Foulkes estimate   =    -142.26988390 Ry
     estimated scf accuracy    <       0.00000018 Ry

     iteration # 13     ecut=    80.00 Ry     beta= 0.40
     Davidson diagonalization with overlap
     ethr =  1.92E-10,  avg # of iterations =  4.0

     End of self-consistent calculation

          k = 0.0000 0.0000 0.0000 (315191 PWs)   bands (ev):

   -11.6236 -10.7478 -10.7477 -10.7477 -10.7477 -10.7477 -10.7477  -9.0216
    -9.0216  -9.0216  -9.0216  -9.0216  -9.0216  -8.1738  -8.1738  -8.1737
    -8.1737  -8.1737  -8.1737  -5.7781  -5.7781  -5.7781  -5.7781  -5.7781
    -5.7781  -5.7076  -5.7075  -5.7075  -5.7075  -5.7075  -5.7075  -4.8691
    -4.0234  -4.0234  -4.0233  -4.0233  -4.0233  -4.0233  -3.7522  -3.7522
    -3.7522  -3.7522  -3.7521  -3.7521  -2.3345  -2.3345  -2.3345  -2.3345
    -2.3345  -2.3345  -1.8112  -1.8111  -1.8111  -1.8111  -1.8111  -1.8111

     the Fermi energy is    -2.4051 ev

!    total energy              =    -142.26988388 Ry
     Harris-Foulkes estimate   =    -142.26988388 Ry
     estimated scf accuracy    <          3.3E-09 Ry

     The total energy is the sum of the following terms:

     one-electron contribution =    -702.58234837 Ry
     hartree contribution      =     360.19421159 Ry
     xc contribution           =     -63.84994695 Ry
     ewald contribution        =     264.01486420 Ry
     smearing contrib. (-TS)   =      -0.04666436 Ry

     convergence has been achieved in  13 iterations

     Forces acting on atoms (cartesian axes, Ry/au):

     atom    1 type  1   force =    -0.00000155    0.00000098    0.00000000
     atom    2 type  1   force =     0.00000638   -0.00000215    0.00000000
     atom    3 type  1   force =    -0.00000817   -0.00000654    0.00000000
     atom    4 type  1   force =    -0.00000820    0.00000711    0.00000000
     atom    5 type  1   force =     0.00000014   -0.00000342    0.00000000
     atom    6 type  1   force =    -0.00000455    0.00000422    0.00000000
     atom    7 type  1   force =     0.00000333    0.00000163    0.00000000
     atom    8 type  1   force =     0.00000099   -0.00000391    0.00000000
     atom    9 type  1   force =     0.00000512    0.00000160    0.00000000
     atom   10 type  1   force =    -0.00000404    0.00000712    0.00000000
     atom   11 type  1   force =    -0.00000323   -0.00000597    0.00000000
     atom   12 type  1   force =     0.00000431    0.00000449    0.00000000
     atom   13 type  1   force =    -0.00000034   -0.00000491    0.00000000
     atom   14 type  1   force =    -0.00000052   -0.00000342    0.00000000
     atom   15 type  1   force =    -0.00000121    0.00000641    0.00000000
     atom   16 type  1   force =     0.00000173   -0.00000121    0.00000000
     atom   17 type  1   force =     0.00000432    0.00000225    0.00000000
     atom   18 type  1   force =     0.00000102    0.00000046    0.00000000
     atom   19 type  1   force =    -0.00000280   -0.00000226    0.00000000
     atom   20 type  1   force =     0.00000186   -0.00001011    0.00000000
     atom   21 type  1   force =    -0.00000042    0.00000155    0.00000000
     atom   22 type  1   force =     0.00000457   -0.00000085    0.00000000
     atom   23 type  1   force =    -0.00000880   -0.00000095    0.00000000
     atom   24 type  1   force =     0.00000002    0.00000092    0.00000000
     atom   25 type  1   force =    -0.00000042   -0.00000024    0.00000000
     atom   26 type  1   force =    -0.00000251    0.00000389    0.00000000
     atom   27 type  1   force =     0.00000844    0.00000689    0.00000000
     atom   28 type  1   force =    -0.00000102    0.00000400    0.00000000
     atom   29 type  1   force =     0.00000832    0.00000551    0.00000000
     atom   30 type  1   force =    -0.00000183   -0.00000551    0.00000000
     atom   31 type  1   force =    -0.00000096   -0.00000760    0.00000000

     Total force =     0.000035     Total SCF correction =     0.000056
     SCF correction compared to forces is large: reduce conv_thr to get better values

     Computing stress (Cartesian axis) and pressure

          total   stress  (Ry/bohr**3)                   (kbar)     P=    0.00
   0.00000004  -0.00000000   0.00000000          0.01     -0.00      0.00
  -0.00000000   0.00000005   0.00000000         -0.00      0.01      0.00
   0.00000000   0.00000000  -0.00000002          0.00      0.00     -0.00

     Writing output data file 13al_planar_2x2_vcr.save/

     General routines

     Parallel routines

      52h

   This run was terminated on:  20:24:53  26Nov2020

   JOB DONE.