     Program PWSCF v.6.3MaX starts on 26Nov2020 at  7:14:35

     R & G space division:  proc/nbgrp/npool/nimage =       8
     Waiting for input...
     Reading input from standard input

     Current dimensions of program PWSCF are:
     Max number of different atomic species (ntypx) = 10
     Max number of k-points (npk) =  40000
     Max angular momentum in pseudopotentials (lmaxx) =  3

     Subspace diagonalization in iterative solution of the eigenvalue problem:
     a serial algorithm will be used

     bravais-lattice index     =            4
     lattice parameter (alat)  =      33.6810  a.u.
     unit-cell volume          =   37130.3117 (a.u.)^3
     number of atoms/cell      =           31
     number of atomic types    =            1
     number of electrons       =        93.00
     number of Kohn-Sham states=           56
     kinetic-energy cutoff     =      80.0000  Ry
     charge density cutoff     =     320.0000  Ry
     convergence threshold     =      1.0E-06
     mixing beta               =       0.4000
     number of iterations used =            8  plain     mixing
     Exchange-correlation      = PBE ( 1  4  3  4 0 0)
     nstep                     =          300

     celldm(1)=  33.680967  celldm(2)=   0.000000  celldm(3)=   1.122133
     celldm(4)=   0.000000  celldm(5)=   0.000000  celldm(6)=   0.000000

     crystal axes: (cart. coord. in units of alat)
               a(1) = (   1.000000   0.000000   0.000000 )
               a(2) = (  -0.500000   0.866025   0.000000 )
               a(3) = (   0.000000   0.000000   1.122133 )

     reciprocal axes: (cart. coord. in units 2 pi/alat)
               b(1) = (  1.000000  0.577350  0.000000 )
               b(2) = (  0.000000  1.154701  0.000000 )
               b(3) = (  0.000000  0.000000  0.891160 )

     PseudoPot. # 1 for Al read from file:
     ./Al.upf
     MD5 check sum: 4974d48a734c9d7d1eb6780a1419d19d
     Pseudo is Norm-conserving + core correction, Zval =  3.0
     Generated using ONCVPSP code by D. R. Hamann
     Using radial grid of 1876 points,  6 beta functions with:
                l(1) =   0
                l(2) =   0
                l(3) =   1
                l(4) =   1
                l(5) =   2
                l(6) =   2

     atomic species   valence    mass     pseudopotential
        Al             3.00    29.98200     Al( 1.00)

      2 Sym. Ops. (no inversion) found

   Cartesian axes

     site n.     atom                  positions (alat units)
         1           Al  tau(   1) = (  -0.0000000   0.1443393   0.0000000  )
         2           Al  tau(   2) = (   0.1250015   0.0721696   0.0000000  )
         3           Al  tau(   3) = (  -0.1249997   0.3608472   0.0000000  )
         4           Al  tau(   4) = (   0.0000018   0.2886775   0.0000000  )
         5           Al  tau(   5) = (  -0.2499994   0.5773550   0.0000000  )
         6           Al  tau(   6) = (  -0.1249979   0.5051854   0.0000000  )
         7           Al  tau(   7) = (  -0.3749991   0.7938629   0.0000000  )
         8           Al  tau(   8) = (  -0.2499976   0.7216932   0.0000000  )
         9           Al  tau(   9) = (   0.2500011   0.1443403   0.0000000  )
        10           Al  tau(  10) = (   0.3750027   0.0721706   0.0000000  )
        11           Al  tau(  11) = (   0.1250014   0.3608482   0.0000000  )
        12           Al  tau(  12) = (   0.2500030   0.2886785   0.0000000  )
        13           Al  tau(  13) = (   0.0000017   0.5773560   0.0000000  )
        14           Al  tau(  14) = (   0.1250033   0.5051864   0.0000000  )
        15           Al  tau(  15) = (  -0.1249980   0.7938639   0.0000000  )
        16           Al  tau(  16) = (   0.0000036   0.7216942   0.0000000  )
        17           Al  tau(  17) = (   0.6250038   0.0721717   0.0000000  )
        18           Al  tau(  18) = (   0.3750026   0.3608492   0.0000000  )
        19           Al  tau(  19) = (   0.5000041   0.2886795   0.0000000  )
        20           Al  tau(  20) = (   0.2500029   0.5773571   0.0000000  )
        21           Al  tau(  21) = (   0.3750044   0.5051874   0.0000000  )
        22           Al  tau(  22) = (   0.1250032   0.7938649   0.0000000  )
        23           Al  tau(  23) = (   0.2500047   0.7216953   0.0000000  )
        24           Al  tau(  24) = (   0.7500035   0.1443423   0.0000000  )
        25           Al  tau(  25) = (   0.8750050   0.0721727   0.0000000  )
        26           Al  tau(  26) = (   0.6250038   0.3608502   0.0000000  )
        27           Al  tau(  27) = (   0.7500053   0.2886805   0.0000000  )
        28           Al  tau(  28) = (   0.5000041   0.5773581   0.0000000  )
        29           Al  tau(  29) = (   0.6250056   0.5051884   0.0000000  )
        30           Al  tau(  30) = (   0.3750044   0.7938660   0.0000000  )
        31           Al  tau(  31) = (   0.5000059   0.7216963   0.0000000  )

     number of k points=     1  Methfessel-Paxton smearing, width (Ry)=  0.0500
                       cart. coord. in units 2pi/alat
        k(    1) = (   0.0000000   0.0000000   0.0000000), wk =   2.0000000

     Initial potential from superposition of free atoms

     starting charge   92.92414, renormalised to   93.00000

     negative rho (up, down):  9.278E-05 0.000E+00
     Starting wfcs are  124 randomized atomic wfcs

     Self-consistent Calculation

     iteration #  1     ecut=    80.00 Ry     beta= 0.40
     Davidson diagonalization with overlap
     ethr =  1.00E-02,  avg # of iterations =  2.0

     total energy              =    -140.64286706 Ry
     Harris-Foulkes estimate   =    -141.23602919 Ry
     estimated scf accuracy    <       1.54750870 Ry

[...]

     End of self-consistent calculation

          k = 0.0000 0.0000 0.0000 (448403 PWs)   bands (ev):

    -9.9530  -9.4485  -9.4330  -9.4328  -9.4260  -9.4259  -9.1458  -8.4049
    -8.4047  -8.3882  -8.3882  -8.3798  -8.3036  -8.2570  -8.2570  -7.5863
    -6.9325  -6.9324  -6.8234  -6.4866  -6.4774  -6.4773  -6.3701  -6.3700
    -5.4641  -4.8435  -4.8434  -4.8370  -4.7357  -4.7355  -4.4780  -4.4681
    -4.4430  -4.4429  -4.1225  -4.1224  -3.9780  -3.4713  -3.4688  -3.4687
    -3.4578  -3.4577  -3.4018  -3.2745  -3.2744  -3.2223  -3.2073  -2.9743
    -2.9654  -2.9653  -2.9390  -2.5198  -2.5197  -2.4494  -2.4491  -2.4315

     the Fermi energy is    -3.0911 ev

!    total energy              =    -140.93610879 Ry
     Harris-Foulkes estimate   =    -140.93610928 Ry
     estimated scf accuracy    <       0.00000072 Ry

     The total energy is the sum of the following terms:

     one-electron contribution =    -502.03713779 Ry
     hartree contribution      =     259.76429364 Ry
     xc contribution           =     -61.33585793 Ry
     ewald contribution        =     162.75359565 Ry
     smearing contrib. (-TS)   =      -0.08100236 Ry

     convergence has been achieved in  16 iterations

     Forces acting on atoms (cartesian axes, Ry/au):

     atom    1 type  1   force =     0.00000426   -0.00230044    0.00000000
     atom    2 type  1   force =     0.00372140    0.00399403    0.00000000
     atom    3 type  1   force =     0.00115042    0.00066728    0.00000000
     atom    4 type  1   force =    -0.00000621   -0.00051730    0.00000000
     atom    5 type  1   force =    -0.00197586    0.00114886    0.00000000
     atom    6 type  1   force =    -0.00046262    0.00027864    0.00000000
     atom    7 type  1   force =    -0.00183178   -0.00108611    0.00000000
     atom    8 type  1   force =     0.00530404    0.00122919    0.00000000
     atom    9 type  1   force =    -0.00257255    0.00219158    0.00000000
     atom   10 type  1   force =     0.01313295    0.00758637    0.00000000
     atom   11 type  1   force =    -0.00114028    0.00066454    0.00000000
     atom   12 type  1   force =     0.00111917   -0.00066096    0.00000000
     atom   13 type  1   force =    -0.00003137   -0.00130911    0.00000000
     atom   14 type  1   force =     0.00046922    0.00024644    0.00000000
     atom   15 type  1   force =     0.00062504   -0.00334563    0.00000000
     atom   16 type  1   force =    -0.00001868    0.00130567    0.00000000
     atom   17 type  1   force =    -0.01312214    0.00758487    0.00000000
     atom   18 type  1   force =    -0.00317594    0.00110325    0.00000000
     atom   19 type  1   force =    -0.00002733   -0.01514705    0.00000000
     atom   20 type  1   force =     0.00201044    0.00115334    0.00000000
     atom   21 type  1   force =    -0.00159672   -0.00516870    0.00000000
     atom   22 type  1   force =    -0.00062974   -0.00334642    0.00000000
     atom   23 type  1   force =    -0.00529664    0.00121245    0.00000000
     atom   24 type  1   force =     0.00255881    0.00221526    0.00000000
     atom   25 type  1   force =    -0.00370578    0.00398340    0.00000000
     atom   26 type  1   force =     0.00321624    0.00112501    0.00000000
     atom   27 type  1   force =    -0.00113423   -0.00065818    0.00000000
     atom   28 type  1   force =    -0.00001375    0.00213997    0.00000000
     atom   29 type  1   force =     0.00158254   -0.00520224    0.00000000
     atom   30 type  1   force =     0.00186511   -0.00108195    0.00000000
     atom   31 type  1   force =    -0.00001803   -0.00000604    0.00000000

     Total force =     0.031247     Total SCF correction =     0.000595

     Computing stress (Cartesian axis) and pressure

          total   stress  (Ry/bohr**3)                   (kbar)     P=   -0.57
  -0.00000578   0.00000000   0.00000000         -0.85      0.00      0.00
   0.00000000  -0.00000577   0.00000000          0.00     -0.85      0.00
   0.00000000   0.00000000   0.00000001          0.00      0.00      0.00

     BFGS Geometry Optimization

     number of scf cycles    =   1
     number of bfgs steps    =   0

     enthalpy new            =    -140.9361087876 Ry

     new trust radius        =       0.0151666486 bohr
     new conv_thr            =       0.0000010000 Ry

     new unit-cell volume =  37119.58721 a.u.^3 (  5500.55525 Ang^3 )
     density =      0.28059 g/cm^3

CELL_PARAMETERS (alat= 33.68096681)
   0.999855437   0.000000035   0.000000000
  -0.499927688   0.865900426   0.000000000
   0.000000000   0.000000000   1.122132950

ATOMIC_POSITIONS (angstrom)
Al       0.000001756   2.570999502   0.000000000
Al       2.229573708   1.288221146   0.000000000
Al      -2.226964243   6.430875945   0.000000000
Al       0.000028990   5.144140423   0.000000000
Al      -4.456190798  10.289436971   0.000000000
Al      -2.227784933   9.002867775   0.000000000
Al      -6.683686999  14.146560669   0.000000000
Al      -4.452306226  12.861676933   0.000000000
Al       4.453815016   2.573394581   0.000000000
Al       6.689730013   1.290140206   0.000000000
Al       2.227000393   6.430892844   0.000000000
Al       4.455801079   5.144082759   0.000000000
Al       0.000014685  10.288154804   0.000000000
Al       2.227884752   9.002869085   0.000000000
Al      -2.227210447  14.145383502   0.000000000
Al       0.000054170  12.861735750   0.000000000
Al      11.131015077   1.290157765   0.000000000
Al       6.681099975   6.431143316   0.000000000
[...]
     new trust radius        =       0.0227466864 bohr
     new conv_thr            =       0.0000010000 Ry

[...]

     Writing output data file 17al_planar_2x2_vcr.save/
     NEW-OLD atomic charge density approx. for the potential

[...]

     Writing output data file 17al_planar_2x2_vcr.save/
     NEW-OLD atomic charge density approx. for the potential
     Check: negative starting charge=   -0.000121

[...]

     Writing output data file 17al_planar_2x2_vcr.save/
     Check: negative starting charge=   -0.000121
     NEW-OLD atomic charge density approx. for the potential
     Check: negative starting charge=   -0.000133

[...]

     iteration #  1     ecut=    80.00 Ry     beta= 0.40
     Davidson diagonalization with overlap
     c_bands:  1 eigenvalues not converged
     ethr =  1.00E-06,  avg # of iterations = 20.0

[...]

     CASE: enthalpy_new > enthalpy_old

[...]

     WARNING: bfgs curvature condition failed, Theta= 0.085
     new trust radius        =       0.1703029669 bohr
     new conv_thr            =       0.0000003748 Ry

[...]

     CASE: enthalpy_new > enthalpy_old

[...]

     iteration #  1     ecut=    80.00 Ry     beta= 0.40
     Davidson diagonalization with overlap
     c_bands:  1 eigenvalues not converged
     ethr =  1.00E-06,  avg # of iterations = 20.0

[...]

     Total force =     0.000638     Total SCF correction =     0.000058

[...]

     Total force =     0.000493     Total SCF correction =     0.000058
     SCF correction compared to forces is large: reduce conv_thr to get better values

[...]

     Writing output data file 17al_planar_2x2_vcr.save/
     Check: negative starting charge=   -0.000131
     NEW-OLD atomic charge density approx. for the potential
     Check: negative starting charge=   -0.000131
     extrapolated charge   93.00044, renormalised to   93.00000

[...]

     Writing output data file 17al_planar_2x2_vcr.save/
     Check: negative starting charge=   -0.000131
     NEW-OLD atomic charge density approx. for the potential
     Check: negative starting charge=   -0.000131

     negative rho (up, down):  1.105E-08 0.000E+00
     extrapolated charge   93.00012, renormalised to   93.00000

[...]

     small trust_radius: resetting bfgs history

[...]

     number of scf cycles    = 219
     number of bfgs steps    = 215

     enthalpy old            =    -142.2701674602 Ry
     enthalpy new            =    -142.2701674675 Ry

     CASE: enthalpy_new < enthalpy_old

     WARNING: bfgs curvature condition failed, Theta= 0.951
     Message from routine bfgs:
     history already reset at previous step: stopping
     small trust_radius: resetting bfgs history

     new trust radius        =       0.0000254157 bohr
     new conv_thr            =       0.0000000100 Ry

     new unit-cell volume =  26092.95563 a.u.^3 (  3866.57705 Ang^3 )
     density =      0.39916 g/cm^3

[...]

ATOMIC_POSITIONS (angstrom)
Al      -1.686415857  -0.904899959   0.000000000
Al       2.650607514   0.766279945   0.000000000
Al      -1.930032157   6.190735501   0.000000000
Al       1.685890632   3.270412262   0.000000000
Al      -5.545997594   9.111180910   0.000000000
Al      -2.895041757   8.694732777   0.000000000
Al      -6.510753560  11.615295189   0.000000000
Al      -3.859892362  11.198827412   0.000000000
Al       4.336786792   2.853933974   0.000000000
Al       6.987703268   2.437393819   0.000000000
Al       0.721039196   5.774520848   0.000000000
Al       3.371950025   5.358101917   0.000000000
Al      -0.244033346   8.278516615   0.000000000
Al       2.406990427   7.862213510   0.000000000
Al      -2.173724298  13.286531699   0.000000000
Al      -1.209006286  10.782470832   0.000000000
Al       9.638714394   2.020851857   0.000000000
Al       6.022861382   4.941484029   0.000000000
Al       8.673860398   4.524906259   0.000000000
Al       4.093185095   9.949717799   0.000000000
Al       5.057964600   7.445642586   0.000000000
Al       0.477317007  12.870085998   0.000000000
Al       1.442053384  10.366196867   0.000000000
Al      12.289831851   1.604460922   0.000000000
Al      14.940826734   1.188073444   0.000000000
Al      11.324945650   4.108400908   0.000000000
Al      13.976002309   3.692174179   0.000000000
Al       7.708971646   7.028959019   0.000000000
Al      10.359976962   6.612443990   0.000000000
Al       3.128354408  12.453622152   0.000000000
Al       6.744186329   9.533084705   0.000000000

     Writing output data file 17al_planar_2x2_vcr.save/
     Check: negative starting charge=   -0.000131
     NEW-OLD atomic charge density approx. for the potential
     Check: negative starting charge=   -0.000131
     extrapolated charge   92.99996, renormalised to   93.00000

[...]

     Threshold (ethr) on eigenvalues was too large:
     Diagonalizing with lowered threshold

     Davidson diagonalization with overlap
     ethr =  4.36E-11,  avg # of iterations =  2.0

[...]

     bfgs converged in 220 scf cycles and 216 bfgs steps
     (criteria: energy <  1.0E-05 Ry, force <  1.0E-04Ry/Bohr, cell <  5.0E-05kbar)

     End of BFGS Geometry Optimization

     Final enthalpy =    -142.2701674721 Ry
Begin final coordinates
     new unit-cell volume =  26092.95563 a.u.^3 (  3866.57705 Ang^3 )
     density =      0.39916 g/cm^3

CELL_PARAMETERS (alat= 33.68096681)
   0.838295183   0.000300921   0.000000000
  -0.419411643   0.725835605   0.000000000
   0.000000000   0.000000000   1.122132950

ATOMIC_POSITIONS (angstrom)
Al      -1.686415857  -0.904899959   0.000000000
Al       2.650607514   0.766279945   0.000000000
Al      -1.930032157   6.190735501   0.000000000
Al       1.685890632   3.270412262   0.000000000
Al      -5.545997594   9.111180910   0.000000000
Al      -2.895041757   8.694732777   0.000000000
Al      -6.510753560  11.615295189   0.000000000
Al      -3.859892362  11.198827412   0.000000000
Al       4.336786792   2.853933974   0.000000000
Al       6.987703268   2.437393819   0.000000000
Al       0.721039196   5.774520848   0.000000000
Al       3.371950025   5.358101917   0.000000000
Al      -0.244033346   8.278516615   0.000000000
Al       2.406990427   7.862213510   0.000000000
Al      -2.173724298  13.286531699   0.000000000
Al      -1.209006286  10.782470832   0.000000000
Al       9.638714394   2.020851857   0.000000000
Al       6.022861382   4.941484029   0.000000000
Al       8.673860398   4.524906259   0.000000000
Al       4.093185095   9.949717799   0.000000000
Al       5.057964600   7.445642586   0.000000000
Al       0.477317007  12.870085998   0.000000000
Al       1.442053384  10.366196867   0.000000000
Al      12.289831851   1.604460922   0.000000000
Al      14.940826734   1.188073444   0.000000000
Al      11.324945650   4.108400908   0.000000000
Al      13.976002309   3.692174179   0.000000000
Al       7.708971646   7.028959019   0.000000000
Al      10.359976962   6.612443990   0.000000000
Al       3.128354408  12.453622152   0.000000000
Al       6.744186329   9.533084705   0.000000000
End final coordinates

     Writing output data file 17al_planar_2x2_vcr.save/

     A final scf calculation at the relaxed structure.
     The G-vectors are recalculated for the final unit cell
     Results may differ from those at the preceding step.

     bravais-lattice index     =            4
     lattice parameter (alat)  =      33.6810  a.u.
     unit-cell volume          =   26092.9556 (a.u.)^3
     number of atoms/cell      =           31
     number of atomic types    =            1
     number of electrons       =        93.00
     number of Kohn-Sham states=           56
     kinetic-energy cutoff     =      80.0000  Ry
     charge density cutoff     =     320.0000  Ry
     convergence threshold     =      1.0E-08
     mixing beta               =       0.4000
     number of iterations used =            8  plain     mixing
     Exchange-correlation      = PBE ( 1  4  3  4 0 0)

     celldm(1)=  33.680967  celldm(2)=   0.000000  celldm(3)=   1.122133
     celldm(4)=   0.000000  celldm(5)=   0.000000  celldm(6)=   0.000000

     crystal axes: (cart. coord. in units of alat)
               a(1) = (   0.838295   0.000301   0.000000 )
               a(2) = (  -0.419412   0.725836   0.000000 )
               a(3) = (   0.000000   0.000000   1.122133 )

     reciprocal axes: (cart. coord. in units 2 pi/alat)
               b(1) = (  1.192650  0.689152  0.000000 )
               b(2) = ( -0.000494  1.377437  0.000000 )
               b(3) = (  0.000000  0.000000  0.891160 )

     PseudoPot. # 1 for Al read from file:
     ./Al.upf
     MD5 check sum: 4974d48a734c9d7d1eb6780a1419d19d
     Pseudo is Norm-conserving + core correction, Zval =  3.0
     Generated using ONCVPSP code by D. R. Hamann
     Using radial grid of 1876 points,  6 beta functions with:
                l(1) =   0
                l(2) =   0
                l(3) =   1
                l(4) =   1
                l(5) =   2
                l(6) =   2

     atomic species   valence    mass     pseudopotential
        Al             3.00    29.98200     Al( 1.00)

      2 Sym. Ops. (no inversion) found

   Cartesian axes

     site n.     atom                  positions (alat units)
         1           Al  tau(   1) = (  -0.0946191  -0.0507709   0.0000000  )
         2           Al  tau(   2) = (   0.1487167   0.0429934   0.0000000  )
         3           Al  tau(   3) = (  -0.1082876   0.3473414   0.0000000  )
         4           Al  tau(   4) = (   0.0945897   0.1834919   0.0000000  )
         5           Al  tau(   5) = (  -0.3111673   0.5111978   0.0000000  )
         6           Al  tau(   6) = (  -0.1624311   0.4878323   0.0000000  )
         7           Al  tau(   7) = (  -0.3652966   0.6516953   0.0000000  )
         8           Al  tau(   8) = (  -0.2165656   0.6283287   0.0000000  )
         9           Al  tau(   9) = (   0.2433226   0.1601247   0.0000000  )
        10           Al  tau(  10) = (   0.3920566   0.1367540   0.0000000  )
        11           Al  tau(  11) = (   0.0404551   0.3239890   0.0000000  )
        12           Al  tau(  12) = (   0.1891888   0.3006251   0.0000000  )
        13           Al  tau(  13) = (  -0.0136919   0.4644798   0.0000000  )
        14           Al  tau(  14) = (   0.1350482   0.4411224   0.0000000  )
        15           Al  tau(  15) = (  -0.1219604   0.7454628   0.0000000  )
        16           Al  tau(  16) = (  -0.0678333   0.6049683   0.0000000  )
        17           Al  tau(  17) = (   0.5407960   0.1133832   0.0000000  )
        18           Al  tau(  18) = (   0.3379226   0.2772501   0.0000000  )
        19           Al  tau(  19) = (   0.4866612   0.2538773   0.0000000  )
        20           Al  tau(  20) = (   0.2296549   0.5582453   0.0000000  )
        21           Al  tau(  21) = (   0.2837854   0.4177500   0.0000000  )
        22           Al  tau(  22) = (   0.0267807   0.7220974   0.0000000  )
        23           Al  tau(  23) = (   0.0809088   0.5816126   0.0000000  )
        24           Al  tau(  24) = (   0.6895413   0.0900209   0.0000000  )
        25           Al  tau(  25) = (   0.8382797   0.0666588   0.0000000  )
        26           Al  tau(  26) = (   0.6354047   0.2305086   0.0000000  )
        27           Al  tau(  27) = (   0.7841466   0.2071555   0.0000000  )
        28           Al  tau(  28) = (   0.4325246   0.3943713   0.0000000  )
        29           Al  tau(  29) = (   0.5812636   0.3710021   0.0000000  )
        30           Al  tau(  30) = (   0.1755215   0.6987310   0.0000000  )
        31           Al  tau(  31) = (   0.3783937   0.5348694   0.0000000  )

     number of k points=     1  Methfessel-Paxton smearing, width (Ry)=  0.0500
                       cart. coord. in units 2pi/alat
        k(    1) = (   0.0000000   0.0000000   0.0000000), wk =   2.0000000

     Initial potential from superposition of free atoms

     starting charge   92.92414, renormalised to   93.00000

     negative rho (up, down):  7.271E-05 0.000E+00
     Starting wfcs are  124 randomized atomic wfcs

     Self-consistent Calculation

[...]

     negative rho (up, down):  3.636E-08 0.000E+00

[...]

     total energy              =    -142.26988407 Ry
     Harris-Foulkes estimate   =    -142.26988407 Ry
     estimated scf accuracy    <       0.00000002 Ry

     iteration # 15     ecut=    80.00 Ry     beta= 0.40
     Davidson diagonalization with overlap
     ethr =  2.08E-11,  avg # of iterations =  5.0

     End of self-consistent calculation

          k = 0.0000 0.0000 0.0000 (315231 PWs)   bands (ev):

   -11.6236 -10.7478 -10.7478 -10.7477 -10.7477 -10.7477 -10.7476  -9.0217
    -9.0216  -9.0216  -9.0216  -9.0216  -9.0215  -8.1738  -8.1738  -8.1738
    -8.1737  -8.1737  -8.1737  -5.7782  -5.7782  -5.7781  -5.7781  -5.7781
    -5.7780  -5.7076  -5.7076  -5.7076  -5.7075  -5.7075  -5.7075  -4.8691
    -4.0234  -4.0234  -4.0234  -4.0233  -4.0233  -4.0233  -3.7524  -3.7524
    -3.7523  -3.7521  -3.7521  -3.7521  -2.3346  -2.3346  -2.3345  -2.3345
    -2.3345  -2.3345  -1.8112  -1.8112  -1.8112  -1.8111  -1.8111  -1.8111

     the Fermi energy is    -2.4052 ev

!    total energy              =    -142.26988407 Ry
     Harris-Foulkes estimate   =    -142.26988408 Ry
     estimated scf accuracy    <          7.8E-09 Ry

     The total energy is the sum of the following terms:

     one-electron contribution =    -702.57760226 Ry
     hartree contribution      =     360.19180988 Ry
     xc contribution           =     -63.84983694 Ry
     ewald contribution        =     264.01241370 Ry
     smearing contrib. (-TS)   =      -0.04666846 Ry

     convergence has been achieved in  15 iterations

     Forces acting on atoms (cartesian axes, Ry/au):

     atom    1 type  1   force =    -0.00000800    0.00000284    0.00000000
     atom    2 type  1   force =     0.00000540   -0.00000140    0.00000000
     atom    3 type  1   force =    -0.00000848    0.00000623    0.00000000
     atom    4 type  1   force =    -0.00001147   -0.00000173    0.00000000
     atom    5 type  1   force =     0.00000257   -0.00000378    0.00000000
     atom    6 type  1   force =     0.00000121    0.00000282    0.00000000
     atom    7 type  1   force =    -0.00000284    0.00000651    0.00000000
     atom    8 type  1   force =     0.00000421    0.00000821    0.00000000
     atom    9 type  1   force =    -0.00000789   -0.00000344    0.00000000
     atom   10 type  1   force =     0.00000370   -0.00000123    0.00000000
     atom   11 type  1   force =    -0.00001623   -0.00000947    0.00000000
     atom   12 type  1   force =    -0.00000532   -0.00001037    0.00000000
     atom   13 type  1   force =     0.00000321   -0.00000751    0.00000000
     atom   14 type  1   force =     0.00000318   -0.00000996    0.00000000
     atom   15 type  1   force =     0.00000211   -0.00000231    0.00000000
     atom   16 type  1   force =     0.00001706    0.00000479    0.00000000
     atom   17 type  1   force =     0.00001064    0.00001489    0.00000000
     atom   18 type  1   force =     0.00000262    0.00000296    0.00000000
     atom   19 type  1   force =     0.00000654   -0.00000145    0.00000000
     atom   20 type  1   force =    -0.00000340   -0.00000988    0.00000000
     atom   21 type  1   force =     0.00001165   -0.00000594    0.00000000
     atom   22 type  1   force =    -0.00001867    0.00000131    0.00000000
     atom   23 type  1   force =     0.00000935   -0.00001811    0.00000000
     atom   24 type  1   force =    -0.00000224    0.00000525    0.00000000
     atom   25 type  1   force =    -0.00000242    0.00000782    0.00000000
     atom   26 type  1   force =    -0.00000744    0.00001295    0.00000000
     atom   27 type  1   force =     0.00000004   -0.00001197    0.00000000
     atom   28 type  1   force =     0.00000370    0.00000873    0.00000000
     atom   29 type  1   force =     0.00000661    0.00000340    0.00000000
     atom   30 type  1   force =     0.00000427    0.00000893    0.00000000
     atom   31 type  1   force =    -0.00000364    0.00000091    0.00000000

     Total force =     0.000061     Total SCF correction =     0.000096
     SCF correction compared to forces is large: reduce conv_thr to get better values

     Computing stress (Cartesian axis) and pressure

          total   stress  (Ry/bohr**3)                   (kbar)     P=    0.00
   0.00000004   0.00000001   0.00000000          0.01      0.00      0.00
   0.00000001   0.00000003   0.00000000          0.00      0.00      0.00
   0.00000000   0.00000000  -0.00000002          0.00      0.00     -0.00

     Writing output data file 17al_planar_2x2_vcr.save/

     General routines

     Parallel routines

      32h

   This run was terminated on:   4:47: 8  27Nov2020

   JOB DONE.