     Program PWSCF v.6.3MaX starts on 26Nov2020 at  9:15:58

     R & G space division:  proc/nbgrp/npool/nimage =       8
     Waiting for input...
     Reading input from standard input

     Current dimensions of program PWSCF are:
     Max number of different atomic species (ntypx) = 10
     Max number of k-points (npk) =  40000
     Max angular momentum in pseudopotentials (lmaxx) =  3

     Subspace diagonalization in iterative solution of the eigenvalue problem:
     a serial algorithm will be used

     bravais-lattice index     =            4
     lattice parameter (alat)  =      33.6810  a.u.
     unit-cell volume          =   37130.3117 (a.u.)^3
     number of atoms/cell      =           31
     number of atomic types    =            1
     number of electrons       =        93.00
     number of Kohn-Sham states=           56
     kinetic-energy cutoff     =      80.0000  Ry
     charge density cutoff     =     320.0000  Ry
     convergence threshold     =      1.0E-06
     mixing beta               =       0.4000
     number of iterations used =            8  plain     mixing
     Exchange-correlation      = PBE ( 1  4  3  4 0 0)
     nstep                     =          300

     celldm(1)=  33.680967  celldm(2)=   0.000000  celldm(3)=   1.122133
     celldm(4)=   0.000000  celldm(5)=   0.000000  celldm(6)=   0.000000

     crystal axes: (cart. coord. in units of alat)
               a(1) = (   1.000000   0.000000   0.000000 )
               a(2) = (  -0.500000   0.866025   0.000000 )
               a(3) = (   0.000000   0.000000   1.122133 )

     reciprocal axes: (cart. coord. in units 2 pi/alat)
               b(1) = (  1.000000  0.577350  0.000000 )
               b(2) = (  0.000000  1.154701  0.000000 )
               b(3) = (  0.000000  0.000000  0.891160 )

     PseudoPot. # 1 for Al read from file:
     ./Al.upf
     MD5 check sum: 4974d48a734c9d7d1eb6780a1419d19d
     Pseudo is Norm-conserving + core correction, Zval =  3.0
     Generated using ONCVPSP code by D. R. Hamann
     Using radial grid of 1876 points,  6 beta functions with:
                l(1) =   0
                l(2) =   0
                l(3) =   1
                l(4) =   1
                l(5) =   2
                l(6) =   2

     atomic species   valence    mass     pseudopotential
        Al             3.00    29.98200     Al( 1.00)

      2 Sym. Ops. (no inversion) found

   Cartesian axes

     site n.     atom                  positions (alat units)
         1           Al  tau(   1) = (  -0.0000000   0.1443393   0.0000000  )
         2           Al  tau(   2) = (   0.1250015   0.0721696   0.0000000  )
         3           Al  tau(   3) = (  -0.1249997   0.3608472   0.0000000  )
         4           Al  tau(   4) = (   0.0000018   0.2886775   0.0000000  )
         5           Al  tau(   5) = (  -0.2499994   0.5773550   0.0000000  )
         6           Al  tau(   6) = (  -0.1249979   0.5051854   0.0000000  )
         7           Al  tau(   7) = (  -0.3749991   0.7938629   0.0000000  )
         8           Al  tau(   8) = (  -0.2499976   0.7216932   0.0000000  )
         9           Al  tau(   9) = (   0.2500011   0.1443403   0.0000000  )
        10           Al  tau(  10) = (   0.3750027   0.0721706   0.0000000  )
        11           Al  tau(  11) = (   0.1250014   0.3608482   0.0000000  )
        12           Al  tau(  12) = (   0.2500030   0.2886785   0.0000000  )
        13           Al  tau(  13) = (   0.0000017   0.5773560   0.0000000  )
        14           Al  tau(  14) = (   0.1250033   0.5051864   0.0000000  )
        15           Al  tau(  15) = (  -0.1249980   0.7938639   0.0000000  )
        16           Al  tau(  16) = (   0.0000036   0.7216942   0.0000000  )
        17           Al  tau(  17) = (   0.5000023   0.1443413   0.0000000  )
        18           Al  tau(  18) = (   0.6250038   0.0721717   0.0000000  )
        19           Al  tau(  19) = (   0.3750026   0.3608492   0.0000000  )
        20           Al  tau(  20) = (   0.5000041   0.2886795   0.0000000  )
        21           Al  tau(  21) = (   0.2500029   0.5773571   0.0000000  )
        22           Al  tau(  22) = (   0.3750044   0.5051874   0.0000000  )
        23           Al  tau(  23) = (   0.1250032   0.7938649   0.0000000  )
        24           Al  tau(  24) = (   0.2500047   0.7216953   0.0000000  )
        25           Al  tau(  25) = (   0.7500035   0.1443423   0.0000000  )
        26           Al  tau(  26) = (   0.8750050   0.0721727   0.0000000  )
        27           Al  tau(  27) = (   0.6250038   0.3608502   0.0000000  )
        28           Al  tau(  28) = (   0.7500053   0.2886805   0.0000000  )
        29           Al  tau(  29) = (   0.6250056   0.5051884   0.0000000  )
        30           Al  tau(  30) = (   0.3750044   0.7938660   0.0000000  )
        31           Al  tau(  31) = (   0.5000059   0.7216963   0.0000000  )

     number of k points=     1  Methfessel-Paxton smearing, width (Ry)=  0.0500
                       cart. coord. in units 2pi/alat
        k(    1) = (   0.0000000   0.0000000   0.0000000), wk =   2.0000000

     Initial potential from superposition of free atoms

     starting charge   92.92414, renormalised to   93.00000

     negative rho (up, down):  9.278E-05 0.000E+00
     Starting wfcs are  124 randomized atomic wfcs

     Self-consistent Calculation

     iteration #  1     ecut=    80.00 Ry     beta= 0.40
     Davidson diagonalization with overlap
     ethr =  1.00E-02,  avg # of iterations =  2.0

     total energy              =    -140.64218777 Ry
     Harris-Foulkes estimate   =    -141.23596536 Ry
     estimated scf accuracy    <       1.54844102 Ry

[...]

     End of self-consistent calculation

          k = 0.0000 0.0000 0.0000 (448403 PWs)   bands (ev):

    -9.9529  -9.4484  -9.4330  -9.4328  -9.4259  -9.4257  -9.1458  -8.4048
    -8.4047  -8.3881  -8.3880  -8.3797  -8.3034  -8.2570  -8.2569  -7.5863
    -6.9324  -6.9323  -6.8233  -6.4865  -6.4773  -6.4771  -6.3701  -6.3699
    -5.4640  -4.8436  -4.8433  -4.8369  -4.7356  -4.7355  -4.4780  -4.4681
    -4.4428  -4.4428  -4.1226  -4.1222  -3.9779  -3.4713  -3.4687  -3.4686
    -3.4576  -3.4575  -3.4017  -3.2744  -3.2743  -3.2223  -3.2073  -2.9743
    -2.9653  -2.9652  -2.9389  -2.5199  -2.5196  -2.4497  -2.4481  -2.4314

     the Fermi energy is    -3.0910 ev

!    total energy              =    -140.93611161 Ry
     Harris-Foulkes estimate   =    -140.93611212 Ry
     estimated scf accuracy    <       0.00000055 Ry

     The total energy is the sum of the following terms:

     one-electron contribution =    -502.03608067 Ry
     hartree contribution      =     259.76312161 Ry
     xc contribution           =     -61.33573287 Ry
     ewald contribution        =     162.75357038 Ry
     smearing contrib. (-TS)   =      -0.08099005 Ry

     convergence has been achieved in  18 iterations

     Forces acting on atoms (cartesian axes, Ry/au):

     atom    1 type  1   force =     0.00002107    0.00215725    0.00000000
     atom    2 type  1   force =     0.00157430   -0.00511962    0.00000000
     atom    3 type  1   force =     0.00190405   -0.00107066    0.00000000
     atom    4 type  1   force =    -0.00000270   -0.00000372    0.00000000
     atom    5 type  1   force =     0.00260305    0.00219773    0.00000000
     atom    6 type  1   force =    -0.00373906    0.00396852    0.00000000
     atom    7 type  1   force =     0.00319518    0.00107940    0.00000000
     atom    8 type  1   force =    -0.00110209   -0.00063167    0.00000000
     atom    9 type  1   force =    -0.00205159    0.00116016    0.00000000
     atom   10 type  1   force =    -0.00045371    0.00029054    0.00000000
     atom   11 type  1   force =    -0.00187848   -0.00108163    0.00000000
     atom   12 type  1   force =     0.00528885    0.00123016    0.00000000
     atom   13 type  1   force =     0.00000523   -0.00229473    0.00000000
     atom   14 type  1   force =     0.00372608    0.00396561    0.00000000
     atom   15 type  1   force =     0.00113174    0.00056833    0.00000000
     atom   16 type  1   force =    -0.00001832   -0.00052001    0.00000000
     atom   17 type  1   force =     0.00000943   -0.00134480    0.00000000
     atom   18 type  1   force =     0.00043563    0.00031256    0.00000000
     atom   19 type  1   force =     0.00061796   -0.00326802    0.00000000
     atom   20 type  1   force =    -0.00000379    0.00134343    0.00000000
     atom   21 type  1   force =    -0.00258443    0.00218325    0.00000000
     atom   22 type  1   force =     0.01313640    0.00752794    0.00000000
     atom   23 type  1   force =    -0.00112033    0.00056060    0.00000000
     atom   24 type  1   force =     0.00109267   -0.00063107    0.00000000
     atom   25 type  1   force =     0.00205895    0.00115284    0.00000000
     atom   26 type  1   force =    -0.00159304   -0.00513240    0.00000000
     atom   27 type  1   force =    -0.00060865   -0.00326110    0.00000000
     atom   28 type  1   force =    -0.00531647    0.00123348    0.00000000
     atom   29 type  1   force =    -0.01314462    0.00751455    0.00000000
     atom   30 type  1   force =    -0.00317330    0.00107002    0.00000000
     atom   31 type  1   force =    -0.00000997   -0.01515694    0.00000000

     Total force =     0.031200     Total SCF correction =     0.000611

     Computing stress (Cartesian axis) and pressure

          total   stress  (Ry/bohr**3)                   (kbar)     P=   -0.57
  -0.00000582   0.00000001   0.00000000         -0.86      0.00      0.00
   0.00000001  -0.00000575   0.00000000          0.00     -0.85      0.00
   0.00000000   0.00000000   0.00000000          0.00      0.00      0.00

     BFGS Geometry Optimization

     number of scf cycles    =   1
     number of bfgs steps    =   0

     enthalpy new            =    -140.9361116098 Ry

     new trust radius        =       0.0151569449 bohr
     new conv_thr            =       0.0000010000 Ry

     new unit-cell volume =  37119.57097 a.u.^3 (  5500.55284 Ang^3 )
     density =      0.28059 g/cm^3

CELL_PARAMETERS (alat= 33.68096681)
   0.999854439   0.000000284   0.000000000
  -0.499926974   0.865900787   0.000000000
   0.000000000   0.000000000   1.122132950

ATOMIC_POSITIONS (angstrom)
Al       0.000011290   2.573359512   0.000000000
Al       2.228435771   1.283400383   0.000000000
Al      -2.226561677   6.429959450   0.000000000
Al       0.000032123   5.144415043   0.000000000
Al      -4.453761085  10.289996592   0.000000000
Al      -2.229514038   9.004824591   0.000000000
Al      -6.681017043  14.147712712   0.000000000
Al      -4.455688066  12.860698456   0.000000000
Al       4.454086852   2.572851410   0.000000000
Al       6.682534951   1.286282360   0.000000000
Al       2.226609190   6.429973106   0.000000000
Al       4.458004087   5.145087348   0.000000000
Al       0.000036609  10.287639084   0.000000000
Al       2.229607973   9.004842508   0.000000000
Al      -2.226936606  14.147461760   0.000000000
Al       0.000057557  12.860776989   0.000000000
Al       8.910349540   2.571545488   0.000000000
Al      11.138177705   1.286313472   0.000000000
[...]

[...]

     Writing output data file 29al_planar_2x2_vcr.save/
     NEW-OLD atomic charge density approx. for the potential

[...]

     Writing output data file 29al_planar_2x2_vcr.save/
     NEW-OLD atomic charge density approx. for the potential
     Check: negative starting charge=   -0.000121

[...]

     Writing output data file 29al_planar_2x2_vcr.save/
     Check: negative starting charge=   -0.000121
     NEW-OLD atomic charge density approx. for the potential
     Check: negative starting charge=   -0.000133

[...]

     Threshold (ethr) on eigenvalues was too large:
     Diagonalizing with lowered threshold

     Davidson diagonalization with overlap
     ethr =  8.57E-08,  avg # of iterations =  6.0

[...]

     WARNING: info= 94 for Hessian

[...]

     WARNING: info= 94 for Hessian

     WARNING: bfgs curvature condition failed, Theta= 0.837
     new trust radius        =       0.1772134702 bohr
     new conv_thr            =       0.0000003240 Ry

[...]

     WARNING: info= 94 for Hessian
     new trust radius        =       0.0112880028 bohr
     new conv_thr            =       0.0000001233 Ry

[...]

     WARNING: info= 94 for Hessian
     uphill step: resetting bfgs history

[...]

     Total force =     0.000487     Total SCF correction =     0.000099
     SCF correction compared to forces is large: reduce conv_thr to get better values

[...]

     Total force =     0.000347     Total SCF correction =     0.000021

[...]

     Writing output data file 29al_planar_2x2_vcr.save/
     Check: negative starting charge=   -0.000132
     NEW-OLD atomic charge density approx. for the potential
     Check: negative starting charge=   -0.000132

     negative rho (up, down):  1.319E-08 0.000E+00
     extrapolated charge   93.00004, renormalised to   93.00000

[...]

     Writing output data file 29al_planar_2x2_vcr.save/
     Check: negative starting charge=   -0.000132
     NEW-OLD atomic charge density approx. for the potential
     Check: negative starting charge=   -0.000132
     extrapolated charge   92.99989, renormalised to   93.00000

[...]

     small trust_radius: resetting bfgs history

[...]

     number of scf cycles    = 248
     number of bfgs steps    = 247

     enthalpy old            =    -142.0762610833 Ry
     enthalpy new            =    -142.0762610870 Ry

     CASE: enthalpy_new < enthalpy_old

     Message from routine bfgs:
     history already reset at previous step: stopping
     small trust_radius: resetting bfgs history

     new trust radius        =       0.0000160625 bohr
     new conv_thr            =       0.0000000100 Ry

     new unit-cell volume =  26861.23503 a.u.^3 (  3980.42431 Ang^3 )
     density =      0.38774 g/cm^3

[...]

ATOMIC_POSITIONS (angstrom)
Al       0.296553544   0.412707381   0.000000000
Al       3.461217009   1.624036117   0.000000000
Al      -2.849469376   6.159243838   0.000000000
Al      -0.506832992   4.684685575   0.000000000
Al      -5.089776186   9.967181125   0.000000000
Al      -2.752365758   8.656302153   0.000000000
Al      -4.899930319  12.595727097   0.000000000
Al      -2.588552920  11.159176560   0.000000000
Al       1.351207700   2.993926304   0.000000000
Al       5.474840370   0.143999514   0.000000000
Al       1.871719921   5.682971676   0.000000000
Al       3.885317609   4.202919847   0.000000000
Al      -0.346673767   7.188211674   0.000000000
Al       2.364758207   8.179631893   0.000000000
Al       0.122514123  12.150730437   0.000000000
Al      -0.111991282   9.669456127   0.000000000
Al       7.853417384   1.142320177   0.000000000
Al      10.082796413   2.142638041   0.000000000
Al       4.676114481   6.743095276   0.000000000
Al       5.995319347   2.833025600   0.000000000
Al       4.865773972   9.371724118   0.000000000
Al       7.203008309   8.202199004   0.000000000
Al       2.625264657  13.179603591   0.000000000
Al       2.528287919  10.682525362   0.000000000
Al      12.094331654   3.503653118   0.000000000
Al      12.544294427   1.004967436   0.000000000
Al       7.050343134   5.414261195   0.000000000
Al       9.632951274   4.641402054   0.000000000
Al       9.601284689   7.205534818   0.000000000
Al       5.005007805  11.952799485   0.000000000
Al       7.403429903  10.956263175   0.000000000

     Writing output data file 29al_planar_2x2_vcr.save/
     Check: negative starting charge=   -0.000132
     NEW-OLD atomic charge density approx. for the potential
     Check: negative starting charge=   -0.000132
     extrapolated charge   93.00003, renormalised to   93.00000

[...]

     Threshold (ethr) on eigenvalues was too large:
     Diagonalizing with lowered threshold

     Davidson diagonalization with overlap
     ethr =  1.45E-11,  avg # of iterations =  5.0

[...]

     bfgs converged in 249 scf cycles and 248 bfgs steps
     (criteria: energy <  1.0E-05 Ry, force <  1.0E-04Ry/Bohr, cell <  5.0E-05kbar)

     End of BFGS Geometry Optimization

     Final enthalpy =    -142.0762610887 Ry
Begin final coordinates
     new unit-cell volume =  26861.23503 a.u.^3 (  3980.42431 Ang^3 )
     density =      0.38774 g/cm^3

CELL_PARAMETERS (alat= 33.68096681)
   0.832087042  -0.010130994   0.000000000
  -0.424772545   0.758109843   0.000000000
   0.000000000   0.000000000   1.122132950

ATOMIC_POSITIONS (angstrom)
Al       0.296553544   0.412707381   0.000000000
Al       3.461217009   1.624036117   0.000000000
Al      -2.849469376   6.159243838   0.000000000
Al      -0.506832992   4.684685575   0.000000000
Al      -5.089776186   9.967181125   0.000000000
Al      -2.752365758   8.656302153   0.000000000
Al      -4.899930319  12.595727097   0.000000000
Al      -2.588552920  11.159176560   0.000000000
Al       1.351207700   2.993926304   0.000000000
Al       5.474840370   0.143999514   0.000000000
Al       1.871719921   5.682971676   0.000000000
Al       3.885317609   4.202919847   0.000000000
Al      -0.346673767   7.188211674   0.000000000
Al       2.364758207   8.179631893   0.000000000
Al       0.122514123  12.150730437   0.000000000
Al      -0.111991282   9.669456127   0.000000000
Al       7.853417384   1.142320177   0.000000000
Al      10.082796413   2.142638041   0.000000000
Al       4.676114481   6.743095276   0.000000000
Al       5.995319347   2.833025600   0.000000000
Al       4.865773972   9.371724118   0.000000000
Al       7.203008309   8.202199004   0.000000000
Al       2.625264657  13.179603591   0.000000000
Al       2.528287919  10.682525362   0.000000000
Al      12.094331654   3.503653118   0.000000000
Al      12.544294427   1.004967436   0.000000000
Al       7.050343134   5.414261195   0.000000000
Al       9.632951274   4.641402054   0.000000000
Al       9.601284689   7.205534818   0.000000000
Al       5.005007805  11.952799485   0.000000000
Al       7.403429903  10.956263175   0.000000000
End final coordinates

     Writing output data file 29al_planar_2x2_vcr.save/

     A final scf calculation at the relaxed structure.
     The G-vectors are recalculated for the final unit cell
     Results may differ from those at the preceding step.

     bravais-lattice index     =            4
     lattice parameter (alat)  =      33.6810  a.u.
     unit-cell volume          =   26861.2350 (a.u.)^3
     number of atoms/cell      =           31
     number of atomic types    =            1
     number of electrons       =        93.00
     number of Kohn-Sham states=           56
     kinetic-energy cutoff     =      80.0000  Ry
     charge density cutoff     =     320.0000  Ry
     convergence threshold     =      1.0E-08
     mixing beta               =       0.4000
     number of iterations used =            8  plain     mixing
     Exchange-correlation      = PBE ( 1  4  3  4 0 0)

     celldm(1)=  33.680967  celldm(2)=   0.000000  celldm(3)=   1.122133
     celldm(4)=   0.000000  celldm(5)=   0.000000  celldm(6)=   0.000000

     crystal axes: (cart. coord. in units of alat)
               a(1) = (   0.832087  -0.010131   0.000000 )
               a(2) = (  -0.424773   0.758110   0.000000 )
               a(3) = (   0.000000   0.000000   1.122133 )

     reciprocal axes: (cart. coord. in units 2 pi/alat)
               b(1) = (  1.210052  0.677998  0.000000 )
               b(2) = (  0.016171  1.328130  0.000000 )
               b(3) = (  0.000000  0.000000  0.891160 )

     PseudoPot. # 1 for Al read from file:
     ./Al.upf
     MD5 check sum: 4974d48a734c9d7d1eb6780a1419d19d
     Pseudo is Norm-conserving + core correction, Zval =  3.0
     Generated using ONCVPSP code by D. R. Hamann
     Using radial grid of 1876 points,  6 beta functions with:
                l(1) =   0
                l(2) =   0
                l(3) =   1
                l(4) =   1
                l(5) =   2
                l(6) =   2

     atomic species   valence    mass     pseudopotential
        Al             3.00    29.98200     Al( 1.00)

      2 Sym. Ops. (no inversion) found

   Cartesian axes

     site n.     atom                  positions (alat units)
         1           Al  tau(   1) = (   0.0166386   0.0231556   0.0000000  )
         2           Al  tau(   2) = (   0.1941973   0.0911192   0.0000000  )
         3           Al  tau(   3) = (  -0.1598742   0.3455745   0.0000000  )
         4           Al  tau(   4) = (  -0.0284367   0.2628420   0.0000000  )
         5           Al  tau(   5) = (  -0.2855703   0.5592251   0.0000000  )
         6           Al  tau(   6) = (  -0.1544260   0.4856761   0.0000000  )
         7           Al  tau(   7) = (  -0.2749187   0.7067040   0.0000000  )
         8           Al  tau(   8) = (  -0.1452350   0.6261040   0.0000000  )
         9           Al  tau(   9) = (   0.0758117   0.1679792   0.0000000  )
        10           Al  tau(  10) = (   0.3071749   0.0080793   0.0000000  )
        11           Al  tau(  11) = (   0.1050159   0.3188525   0.0000000  )
        12           Al  tau(  12) = (   0.2179921   0.2358117   0.0000000  )
        13           Al  tau(  13) = (  -0.0194507   0.4033065   0.0000000  )
        14           Al  tau(  14) = (   0.1326787   0.4589317   0.0000000  )
        15           Al  tau(  15) = (   0.0068739   0.6817367   0.0000000  )
        16           Al  tau(  16) = (  -0.0062835   0.5425208   0.0000000  )
        17           Al  tau(  17) = (   0.4406289   0.0640918   0.0000000  )
        18           Al  tau(  18) = (   0.5657119   0.1202162   0.0000000  )
        19           Al  tau(  19) = (   0.2623611   0.3783325   0.0000000  )
        20           Al  tau(  20) = (   0.3363773   0.1589516   0.0000000  )
        21           Al  tau(  21) = (   0.2730023   0.5258160   0.0000000  )
        22           Al  tau(  22) = (   0.4041366   0.4601979   0.0000000  )
        23           Al  tau(  23) = (   0.1472948   0.7394634   0.0000000  )
        24           Al  tau(  24) = (   0.1418538   0.5993607   0.0000000  )
        25           Al  tau(  25) = (   0.6785724   0.1965782   0.0000000  )
        26           Al  tau(  26) = (   0.7038183   0.0563854   0.0000000  )
        27           Al  tau(  27) = (   0.3955711   0.3037760   0.0000000  )
        28           Al  tau(  28) = (   0.5404726   0.2604135   0.0000000  )
        29           Al  tau(  29) = (   0.5386959   0.4042784   0.0000000  )
        30           Al  tau(  30) = (   0.2808142   0.6706315   0.0000000  )
        31           Al  tau(  31) = (   0.4153816   0.6147192   0.0000000  )

     number of k points=     1  Methfessel-Paxton smearing, width (Ry)=  0.0500
                       cart. coord. in units 2pi/alat
        k(    1) = (   0.0000000   0.0000000   0.0000000), wk =   2.0000000

     Initial potential from superposition of free atoms

     starting charge   92.92414, renormalised to   93.00000

     negative rho (up, down):  7.285E-05 0.000E+00
     Starting wfcs are  124 randomized atomic wfcs

     Self-consistent Calculation

     iteration #  1     ecut=    80.00 Ry     beta= 0.40
     Davidson diagonalization with overlap
     c_bands:  3 eigenvalues not converged
     ethr =  1.00E-06,  avg # of iterations = 20.0

[...]

     negative rho (up, down):  2.637E-08 0.000E+00

[...]

     total energy              =    -142.07600052 Ry
     Harris-Foulkes estimate   =    -142.07600054 Ry
     estimated scf accuracy    <       0.00000004 Ry

     iteration # 17     ecut=    80.00 Ry     beta= 0.40
     Davidson diagonalization with overlap
     ethr =  4.16E-11,  avg # of iterations =  4.0

     End of self-consistent calculation

          k = 0.0000 0.0000 0.0000 (324517 PWs)   bands (ev):

   -11.5959 -10.9754 -10.8660 -10.7531 -10.6934 -10.5869 -10.1830  -9.2669
    -9.2359  -9.1643  -8.9080  -8.7141  -8.7053  -8.3331  -8.1918  -8.1543
    -8.0864  -7.9058  -7.7282  -6.2426  -6.2044  -6.1200  -6.0617  -5.8996
    -5.7350  -5.6664  -5.4648  -5.3223  -5.3007  -5.1905  -5.1585  -4.8528
    -4.4746  -4.4744  -4.1971  -4.1910  -4.1172  -4.0526  -4.0162  -3.9621
    -3.9536  -3.7344  -3.6934  -3.6681  -2.5566  -2.5446  -2.4641  -2.2952
    -2.1824  -2.1528  -1.9201  -1.8509  -1.7318  -1.7223  -1.6609  -1.5614

     the Fermi energy is    -2.4325 ev

!    total energy              =    -142.07600050 Ry
     Harris-Foulkes estimate   =    -142.07600052 Ry
     estimated scf accuracy    <          7.1E-09 Ry

     The total energy is the sum of the following terms:

     one-electron contribution =    -684.10359467 Ry
     hartree contribution      =     350.79702923 Ry
     xc contribution           =     -63.66163803 Ry
     ewald contribution        =     254.92210422 Ry
     smearing contrib. (-TS)   =      -0.02990126 Ry

     convergence has been achieved in  17 iterations

     Forces acting on atoms (cartesian axes, Ry/au):

     atom    1 type  1   force =     0.00000061   -0.00000931    0.00000000
     atom    2 type  1   force =    -0.00000746   -0.00000838    0.00000000
     atom    3 type  1   force =     0.00000958   -0.00000532    0.00000000
     atom    4 type  1   force =    -0.00000648   -0.00000596    0.00000000
     atom    5 type  1   force =    -0.00000484    0.00000513    0.00000000
     atom    6 type  1   force =    -0.00000359   -0.00000085    0.00000000
     atom    7 type  1   force =    -0.00000163    0.00001403    0.00000000
     atom    8 type  1   force =    -0.00001627   -0.00000320    0.00000000
     atom    9 type  1   force =     0.00000198   -0.00000169    0.00000000
     atom   10 type  1   force =     0.00000243    0.00000312    0.00000000
     atom   11 type  1   force =     0.00000369   -0.00000432    0.00000000
     atom   12 type  1   force =     0.00000479    0.00000993    0.00000000
     atom   13 type  1   force =    -0.00000687   -0.00000550    0.00000000
     atom   14 type  1   force =    -0.00000107    0.00000617    0.00000000
     atom   15 type  1   force =     0.00000915   -0.00000084    0.00000000
     atom   16 type  1   force =     0.00000342   -0.00000352    0.00000000
     atom   17 type  1   force =     0.00001228    0.00000873    0.00000000
     atom   18 type  1   force =     0.00000246    0.00000541    0.00000000
     atom   19 type  1   force =    -0.00001235   -0.00001041    0.00000000
     atom   20 type  1   force =     0.00000312    0.00001025    0.00000000
     atom   21 type  1   force =     0.00000008   -0.00000515    0.00000000
     atom   22 type  1   force =     0.00000679   -0.00000394    0.00000000
     atom   23 type  1   force =     0.00000604    0.00000499    0.00000000
     atom   24 type  1   force =     0.00000128    0.00000690    0.00000000
     atom   25 type  1   force =    -0.00000508    0.00000635    0.00000000
     atom   26 type  1   force =    -0.00000295    0.00000022    0.00000000
     atom   27 type  1   force =     0.00000075    0.00000545    0.00000000
     atom   28 type  1   force =    -0.00000307   -0.00001058    0.00000000
     atom   29 type  1   force =    -0.00000183   -0.00000550    0.00000000
     atom   30 type  1   force =     0.00001113   -0.00000201    0.00000000
     atom   31 type  1   force =    -0.00000611   -0.00000022    0.00000000

     Total force =     0.000051     Total SCF correction =     0.000086
     SCF correction compared to forces is large: reduce conv_thr to get better values

     Computing stress (Cartesian axis) and pressure

          total   stress  (Ry/bohr**3)                   (kbar)     P=    0.00
   0.00000004  -0.00000001   0.00000000          0.01     -0.00      0.00
  -0.00000001   0.00000004   0.00000000         -0.00      0.01      0.00
   0.00000000   0.00000000  -0.00000001          0.00      0.00     -0.00

     Writing output data file 29al_planar_2x2_vcr.save/

     General routines

     Parallel routines

      51h

   This run was terminated on:   9: 6:59  27Nov2020

   JOB DONE.