     Program PWSCF v.6.3MaX starts on 25Nov2020 at 17:48:43

     R & G space division:  proc/nbgrp/npool/nimage =       8
     Waiting for input...
     Reading input from standard input

     Current dimensions of program PWSCF are:
     Max number of different atomic species (ntypx) = 10
     Max number of k-points (npk) =  40000
     Max angular momentum in pseudopotentials (lmaxx) =  3

     Subspace diagonalization in iterative solution of the eigenvalue problem:
     a serial algorithm will be used

     bravais-lattice index     =            4
     lattice parameter (alat)  =      25.2607  a.u.
     unit-cell volume          =   20885.8003 (a.u.)^3
     number of atoms/cell      =           17
     number of atomic types    =            1
     number of electrons       =        51.00
     number of Kohn-Sham states=           31
     kinetic-energy cutoff     =      80.0000  Ry
     charge density cutoff     =     320.0000  Ry
     convergence threshold     =      1.0E-06
     mixing beta               =       0.4000
     number of iterations used =            8  plain     mixing
     Exchange-correlation      = PBE ( 1  4  3  4 0 0)
     nstep                     =          300

     celldm(1)=  25.260725  celldm(2)=   0.000000  celldm(3)=   1.496177
     celldm(4)=   0.000000  celldm(5)=   0.000000  celldm(6)=   0.000000

     crystal axes: (cart. coord. in units of alat)
               a(1) = (   1.000000   0.000000   0.000000 )
               a(2) = (  -0.500000   0.866025   0.000000 )
               a(3) = (   0.000000   0.000000   1.496177 )

     reciprocal axes: (cart. coord. in units 2 pi/alat)
               b(1) = (  1.000000  0.577350  0.000000 )
               b(2) = (  0.000000  1.154701  0.000000 )
               b(3) = (  0.000000  0.000000  0.668370 )

     PseudoPot. # 1 for Al read from file:
     ./Al.upf
     MD5 check sum: 4974d48a734c9d7d1eb6780a1419d19d
     Pseudo is Norm-conserving + core correction, Zval =  3.0
     Generated using ONCVPSP code by D. R. Hamann
     Using radial grid of 1876 points,  6 beta functions with:
                l(1) =   0
                l(2) =   0
                l(3) =   1
                l(4) =   1
                l(5) =   2
                l(6) =   2

     atomic species   valence    mass     pseudopotential
        Al             3.00    29.98200     Al( 1.00)

      2 Sym. Ops. (no inversion) found

   Cartesian axes

     site n.     atom                  positions (alat units)
         1           Al  tau(   1) = (   0.0000000   0.1924524   0.0000000  )
         2           Al  tau(   2) = (   0.1666687   0.0962261   0.0000000  )
         3           Al  tau(   3) = (   0.3333348   0.1924537   0.0000000  )
         4           Al  tau(   4) = (   0.5000036   0.0962275   0.0000000  )
         5           Al  tau(   5) = (  -0.1666663   0.4811295   0.0000000  )
         6           Al  tau(   6) = (   0.0000024   0.3849033   0.0000000  )
         7           Al  tau(   7) = (   0.1666686   0.4811309   0.0000000  )
         8           Al  tau(   8) = (   0.3333373   0.3849047   0.0000000  )
         9           Al  tau(   9) = (  -0.3333326   0.7698067   0.0000000  )
        10           Al  tau(  10) = (  -0.1666639   0.6735805   0.0000000  )
        11           Al  tau(  11) = (   0.0000023   0.7698081   0.0000000  )
        12           Al  tau(  12) = (   0.1666710   0.6735818   0.0000000  )
        13           Al  tau(  13) = (   0.6666697   0.1924551   0.0000000  )
        14           Al  tau(  14) = (   0.8333384   0.0962289   0.0000000  )
        15           Al  tau(  15) = (   0.6666722   0.3849060   0.0000000  )
        16           Al  tau(  16) = (   0.3333372   0.7698094   0.0000000  )
        17           Al  tau(  17) = (   0.5000059   0.6735832   0.0000000  )

     number of k points=     1  Methfessel-Paxton smearing, width (Ry)=  0.0500
                       cart. coord. in units 2pi/alat
        k(    1) = (   0.0000000   0.0000000   0.0000000), wk =   2.0000000

     Initial potential from superposition of free atoms

     starting charge   50.95840, renormalised to   51.00000

     negative rho (up, down):  5.196E-05 0.000E+00
     Starting wfcs are   68 randomized atomic wfcs

     Self-consistent Calculation

     iteration #  1     ecut=    80.00 Ry     beta= 0.40
     Davidson diagonalization with overlap
     ethr =  1.00E-02,  avg # of iterations =  2.0

     total energy              =     -77.03436422 Ry
     Harris-Foulkes estimate   =     -77.31744535 Ry
     estimated scf accuracy    <       0.79318020 Ry

[...]

     End of self-consistent calculation

          k = 0.0000 0.0000 0.0000 (252395 PWs)   bands (ev):

    -9.9965  -9.1545  -9.0981  -9.0980  -9.0598  -9.0597  -8.4090  -7.5383
    -7.4674  -7.4673  -6.7264  -5.8850  -5.8793  -5.8792  -5.6094  -5.6093
    -4.7519  -4.7519  -4.0026  -3.5337  -3.3090  -3.2900  -3.2899  -3.2354
    -3.1477  -3.1135  -3.1134  -3.0989  -3.0988  -2.7513  -2.7512

     the Fermi energy is    -3.1136 ev

!    total energy              =     -77.16211555 Ry
     Harris-Foulkes estimate   =     -77.16211637 Ry
     estimated scf accuracy    <       0.00000096 Ry

     The total energy is the sum of the following terms:

     one-electron contribution =    -269.13913672 Ry
     hartree contribution      =     139.26331441 Ry
     xc contribution           =     -33.51711640 Ry
     ewald contribution        =      86.35205259 Ry
     smearing contrib. (-TS)   =      -0.12122943 Ry

     convergence has been achieved in  15 iterations

     Forces acting on atoms (cartesian axes, Ry/au):

     atom    1 type  1   force =     0.00001183    0.00000261    0.00000000
     atom    2 type  1   force =     0.00822161   -0.00472465    0.00000000
     atom    3 type  1   force =    -0.00464991   -0.00191032    0.00000000
     atom    4 type  1   force =    -0.00000025   -0.00071164    0.00000000
     atom    5 type  1   force =     0.00400736   -0.00306106    0.00000000
     atom    6 type  1   force =     0.00000517    0.00949479    0.00000000
     atom    7 type  1   force =    -0.00398017   -0.00306024    0.00000000
     atom    8 type  1   force =     0.01927034    0.01112094    0.00000000
     atom    9 type  1   force =    -0.00063846    0.00498024    0.00000000
     atom   10 type  1   force =     0.00064286    0.00037199    0.00000000
     atom   11 type  1   force =     0.00000897   -0.00001499    0.00000000
     atom   12 type  1   force =    -0.00064583    0.00036741    0.00000000
     atom   13 type  1   force =     0.00465045   -0.00192291    0.00000000
     atom   14 type  1   force =    -0.00824167   -0.00473843    0.00000000
     atom   15 type  1   force =    -0.01929281    0.01110474    0.00000000
     atom   16 type  1   force =     0.00064809    0.00497445    0.00000000
     atom   17 type  1   force =    -0.00001759   -0.02227294    0.00000000

     Total force =     0.043707     Total SCF correction =     0.000641

     Computing stress (Cartesian axis) and pressure

          total   stress  (Ry/bohr**3)                   (kbar)     P=   -0.80
  -0.00000820   0.00000001   0.00000000         -1.21      0.00      0.00
   0.00000001  -0.00000820   0.00000000          0.00     -1.21      0.00
   0.00000000   0.00000000   0.00000002          0.00      0.00      0.00

     BFGS Geometry Optimization

     number of scf cycles    =   1
     number of bfgs steps    =   0

     enthalpy new            =     -77.1621155478 Ry

     new trust radius        =       0.0222729495 bohr
     new conv_thr            =       0.0000010000 Ry

     new unit-cell volume =  20877.24044 a.u.^3 (  3093.68781 Ang^3 )
     density =      0.27358 g/cm^3

CELL_PARAMETERS (alat= 25.26072511)
   0.999795001   0.000000257   0.000000000
  -0.499897278   0.865847839   0.000000000
   0.000000000   0.000000000   1.496177267

ATOMIC_POSITIONS (angstrom)
Al       0.000007507   2.572062168   0.000000000
Al       2.231820146   1.283530794   0.000000000
Al       4.452447311   2.571069433   0.000000000
Al       6.682377571   1.285673291   0.000000000
Al      -2.225316690   6.428513183   0.000000000
Al       0.000036152   5.149125763   0.000000000
Al       2.225364714   6.428532950   0.000000000
Al       4.465136105   5.150005450   0.000000000
Al      -4.455211576  10.290839484   0.000000000
Al      -2.227063400   9.002371078   0.000000000
Al       0.000038315  10.288216006   0.000000000
Al       2.227162153   9.002387993   0.000000000
Al       8.912275194   2.571082108   0.000000000
Al      11.132924652   1.283562179   0.000000000
Al       8.899640904   5.150016210   0.000000000
Al       4.455283807  10.290875101   0.000000000
Al       6.682401888   8.990429028   0.000000000

     Writing output data file 15al_planar_2x2_vcr.save/
     NEW-OLD atomic charge density approx. for the potential

     negative rho (up, down):  3.807E-07 0.000E+00
     extrapolated charge   50.97911, renormalised to   51.00000

[...]

     negative rho (up, down):  1.933E-07 0.000E+00

[...]

     enthalpy old            =     -77.1621155478 Ry
     enthalpy new            =     -77.1640562592 Ry

     CASE: enthalpy_new < enthalpy_old

     WARNING: bfgs curvature condition failed, Theta= 0.836
     new trust radius        =       0.0334025792 bohr
     new conv_thr            =       0.0000010000 Ry

[...]

     iteration # 13     ecut=    80.00 Ry     beta= 0.40
     Davidson diagonalization with overlap
     c_bands:  1 eigenvalues not converged
     ethr =  8.16E-09,  avg # of iterations = 20.0

[...]

     WARNING: bfgs curvature condition failed, Theta= 0.868
     new trust radius        =       0.5626320131 bohr
     new conv_thr            =       0.0000010000 Ry

[...]

     CASE: enthalpy_new > enthalpy_old

[...]

     Threshold (ethr) on eigenvalues was too large:
     Diagonalizing with lowered threshold

     Davidson diagonalization with overlap
     ethr =  5.04E-08,  avg # of iterations =  6.0

[...]

     iteration #  1     ecut=    80.00 Ry     beta= 0.40
     Davidson diagonalization with overlap
     c_bands:  1 eigenvalues not converged
     ethr =  1.00E-06,  avg # of iterations = 20.0

[...]

     Total force =     0.000486     Total SCF correction =     0.000062
     SCF correction compared to forces is large: reduce conv_thr to get better values

[...]

     Writing output data file 15al_planar_2x2_vcr.save/
     NEW-OLD atomic charge density approx. for the potential
     extrapolated charge   50.99989, renormalised to   51.00000

[...]

     negative rho (up, down):  1.537E-08 0.000E+00
     extrapolated charge   51.00024, renormalised to   51.00000

[...]

     Total force =     0.000065     Total SCF correction =     0.000005

[...]

     CASE: enthalpy_new < enthalpy_old

     small trust_radius: resetting bfgs history

     new trust radius        =       0.0000188421 bohr
     new conv_thr            =       0.0000000100 Ry

[...]

     Writing output data file 15al_planar_2x2_vcr.save/
     NEW-OLD atomic charge density approx. for the potential
     extrapolated charge   50.99996, renormalised to   51.00000

[...]

     number of scf cycles    = 183
     number of bfgs steps    = 180

     enthalpy old            =     -78.0201859234 Ry
     enthalpy new            =     -78.0201859212 Ry

     CASE: enthalpy_new > enthalpy_old

     new trust radius        =       0.0000034217 bohr

     trust_radius < trust_radius_min

     resetting bfgs history

     Message from routine bfgs:
     history already reset at previous step: stopping
     new conv_thr            =       0.0000000100 Ry

     new unit-cell volume =  14242.40733 a.u.^3 (  2110.50699 Ang^3 )
     density =      0.40103 g/cm^3

[...]

ATOMIC_POSITIONS (angstrom)
Al       1.681939530   1.863753176   0.000000000
Al       3.698701659   0.375269974   0.000000000
Al       4.030910638   2.993280340   0.000000000
Al       6.051390839   1.482438075   0.000000000
Al      -2.443530915   5.007726901   0.000000000
Al      -0.324439898   3.436552210   0.000000000
Al       0.034479579   5.960534737   0.000000000
Al       2.095806885   4.486190633   0.000000000
Al      -4.258290590   8.728986485   0.000000000
Al      -2.118229413   7.430037561   0.000000000
Al       0.315102316   8.451382968   0.000000000
Al       2.578923420   6.942944581   0.000000000
Al       8.348817401   2.484776423   0.000000000
Al      10.412999273   0.815145847   0.000000000
Al       6.225842719   4.197142180   0.000000000
Al       2.633773446   9.445742367   0.000000000
Al       5.195024815   6.622820891   0.000000000

     Writing output data file 15al_planar_2x2_vcr.save/
     NEW-OLD atomic charge density approx. for the potential

[...]

     Threshold (ethr) on eigenvalues was too large:
     Diagonalizing with lowered threshold

     Davidson diagonalization with overlap
     ethr =  1.04E-10,  avg # of iterations =  1.0

[...]

     bfgs converged in 184 scf cycles and 180 bfgs steps
     (criteria: energy <  1.0E-05 Ry, force <  1.0E-04Ry/Bohr, cell <  5.0E-05kbar)

     End of BFGS Geometry Optimization

     Final enthalpy =     -78.0201859227 Ry
Begin final coordinates
     new unit-cell volume =  14242.40733 a.u.^3 (  2110.50699 Ang^3 )
     density =      0.40103 g/cm^3

CELL_PARAMETERS (alat= 25.26072511)
   0.825783226  -0.000046308   0.000000000
  -0.412852837   0.715172678   0.000000000
   0.000000000   0.000000000   1.496177267

ATOMIC_POSITIONS (angstrom)
Al       1.681939530   1.863753176   0.000000000
Al       3.698701659   0.375269974   0.000000000
Al       4.030910638   2.993280340   0.000000000
Al       6.051390839   1.482438075   0.000000000
Al      -2.443530915   5.007726901   0.000000000
Al      -0.324439898   3.436552210   0.000000000
Al       0.034479579   5.960534737   0.000000000
Al       2.095806885   4.486190633   0.000000000
Al      -4.258290590   8.728986485   0.000000000
Al      -2.118229413   7.430037561   0.000000000
Al       0.315102316   8.451382968   0.000000000
Al       2.578923420   6.942944581   0.000000000
Al       8.348817401   2.484776423   0.000000000
Al      10.412999273   0.815145847   0.000000000
Al       6.225842719   4.197142180   0.000000000
Al       2.633773446   9.445742367   0.000000000
Al       5.195024815   6.622820891   0.000000000
End final coordinates

     Writing output data file 15al_planar_2x2_vcr.save/

     A final scf calculation at the relaxed structure.
     The G-vectors are recalculated for the final unit cell
     Results may differ from those at the preceding step.

     bravais-lattice index     =            4
     lattice parameter (alat)  =      25.2607  a.u.
     unit-cell volume          =   14242.4073 (a.u.)^3
     number of atoms/cell      =           17
     number of atomic types    =            1
     number of electrons       =        51.00
     number of Kohn-Sham states=           31
     kinetic-energy cutoff     =      80.0000  Ry
     charge density cutoff     =     320.0000  Ry
     convergence threshold     =      1.0E-08
     mixing beta               =       0.4000
     number of iterations used =            8  plain     mixing
     Exchange-correlation      = PBE ( 1  4  3  4 0 0)

     celldm(1)=  25.260725  celldm(2)=   0.000000  celldm(3)=   1.496177
     celldm(4)=   0.000000  celldm(5)=   0.000000  celldm(6)=   0.000000

     crystal axes: (cart. coord. in units of alat)
               a(1) = (   0.825783  -0.000046   0.000000 )
               a(2) = (  -0.412853   0.715173   0.000000 )
               a(3) = (   0.000000   0.000000   1.496177 )

     reciprocal axes: (cart. coord. in units 2 pi/alat)
               b(1) = (  1.211011  0.699089  0.000000 )
               b(2) = (  0.000078  1.398309  0.000000 )
               b(3) = (  0.000000  0.000000  0.668370 )

     PseudoPot. # 1 for Al read from file:
     ./Al.upf
     MD5 check sum: 4974d48a734c9d7d1eb6780a1419d19d
     Pseudo is Norm-conserving + core correction, Zval =  3.0
     Generated using ONCVPSP code by D. R. Hamann
     Using radial grid of 1876 points,  6 beta functions with:
                l(1) =   0
                l(2) =   0
                l(3) =   1
                l(4) =   1
                l(5) =   2
                l(6) =   2

     atomic species   valence    mass     pseudopotential
        Al             3.00    29.98200     Al( 1.00)

      2 Sym. Ops. (no inversion) found

   Cartesian axes

     site n.     atom                  positions (alat units)
         1           Al  tau(   1) = (   0.1258240   0.1394253   0.0000000  )
         2           Al  tau(   2) = (   0.2766957   0.0280735   0.0000000  )
         3           Al  tau(   3) = (   0.3015478   0.2239239   0.0000000  )
         4           Al  tau(   4) = (   0.4526977   0.1108995   0.0000000  )
         5           Al  tau(   5) = (  -0.1827978   0.3746224   0.0000000  )
         6           Al  tau(   6) = (  -0.0242710   0.2570846   0.0000000  )
         7           Al  tau(   7) = (   0.0025794   0.4459008   0.0000000  )
         8           Al  tau(   8) = (   0.1567849   0.3356068   0.0000000  )
         9           Al  tau(   9) = (  -0.3185579   0.6530056   0.0000000  )
        10           Al  tau(  10) = (  -0.1584623   0.5558327   0.0000000  )
        11           Al  tau(  11) = (   0.0235724   0.6322384   0.0000000  )
        12           Al  tau(  12) = (   0.1929263   0.5193938   0.0000000  )
        13           Al  tau(  13) = (   0.6245655   0.1858833   0.0000000  )
        14           Al  tau(  14) = (   0.7789846   0.0609801   0.0000000  )
        15           Al  tau(  15) = (   0.4657482   0.3139834   0.0000000  )
        16           Al  tau(  16) = (   0.1970296   0.7066252   0.0000000  )
        17           Al  tau(  17) = (   0.3886339   0.4954457   0.0000000  )

     number of k points=     1  Methfessel-Paxton smearing, width (Ry)=  0.0500
                       cart. coord. in units 2pi/alat
        k(    1) = (   0.0000000   0.0000000   0.0000000), wk =   2.0000000

     Initial potential from superposition of free atoms

     starting charge   50.95840, renormalised to   51.00000

     negative rho (up, down):  3.769E-05 0.000E+00
     Starting wfcs are   68 randomized atomic wfcs

     Self-consistent Calculation

[...]

     negative rho (up, down):  1.088E-08 0.000E+00

[...]

     total energy              =     -78.01997622 Ry
     Harris-Foulkes estimate   =     -78.01997624 Ry
     estimated scf accuracy    <       0.00000006 Ry

     iteration # 14     ecut=    80.00 Ry     beta= 0.40
     Davidson diagonalization with overlap
     ethr =  1.14E-10,  avg # of iterations =  3.0

     End of self-consistent calculation

          k = 0.0000 0.0000 0.0000 (172241 PWs)   bands (ev):

   -12.3574 -11.0522 -10.9493 -10.9493 -10.4455 -10.4454  -9.7221  -7.7029
    -7.6809  -7.6809  -7.5807  -7.4390  -7.4390  -6.1811  -5.8995  -5.8995
    -5.8521  -5.6219  -5.6219  -5.2763  -3.9444  -3.8839  -3.8838  -3.5402
    -3.5401  -3.1419  -1.9886  -1.9885  -1.8400  -1.7652  -1.7652

     the Fermi energy is    -3.0828 ev

!    total energy              =     -78.01997621 Ry
     Harris-Foulkes estimate   =     -78.01997621 Ry
     estimated scf accuracy    <          3.1E-09 Ry

     The total energy is the sum of the following terms:

     one-electron contribution =    -388.34832602 Ry
     hartree contribution      =     198.01244329 Ry
     xc contribution           =     -35.07298696 Ry
     ewald contribution        =     147.36961939 Ry
     smearing contrib. (-TS)   =       0.01927409 Ry

     convergence has been achieved in  14 iterations

     Forces acting on atoms (cartesian axes, Ry/au):

     atom    1 type  1   force =    -0.00000176   -0.00000681    0.00000000
     atom    2 type  1   force =    -0.00000544    0.00000348    0.00000000
     atom    3 type  1   force =    -0.00000590    0.00000482    0.00000000
     atom    4 type  1   force =     0.00000372   -0.00000016    0.00000000
     atom    5 type  1   force =    -0.00000196    0.00000751    0.00000000
     atom    6 type  1   force =    -0.00000132    0.00000082    0.00000000
     atom    7 type  1   force =     0.00000243    0.00001202    0.00000000
     atom    8 type  1   force =     0.00000497   -0.00000831    0.00000000
     atom    9 type  1   force =     0.00000734    0.00000211    0.00000000
     atom   10 type  1   force =    -0.00000547   -0.00000181    0.00000000
     atom   11 type  1   force =    -0.00000004   -0.00001865    0.00000000
     atom   12 type  1   force =    -0.00000407    0.00000312    0.00000000
     atom   13 type  1   force =     0.00000521    0.00000267    0.00000000
     atom   14 type  1   force =    -0.00000774   -0.00000142    0.00000000
     atom   15 type  1   force =     0.00000299    0.00000202    0.00000000
     atom   16 type  1   force =     0.00000877    0.00000187    0.00000000
     atom   17 type  1   force =    -0.00000171   -0.00000329    0.00000000

     Total force =     0.000034     Total SCF correction =     0.000055
     SCF correction compared to forces is large: reduce conv_thr to get better values

     Computing stress (Cartesian axis) and pressure

          total   stress  (Ry/bohr**3)                   (kbar)     P=    0.00
   0.00000004   0.00000000   0.00000000          0.01      0.00      0.00
   0.00000000   0.00000004   0.00000000          0.00      0.01      0.00
   0.00000000   0.00000000  -0.00000002          0.00      0.00     -0.00

     Writing output data file 15al_planar_2x2_vcr.save/

     General routines

     Parallel routines

      19h

   This run was terminated on:  22: 7:58  25Nov2020

   JOB DONE.