     Program PWSCF v.6.3MaX starts on 26Nov2020 at  1: 3:58

     R & G space division:  proc/nbgrp/npool/nimage =       8
     Waiting for input...
     Reading input from standard input

     Current dimensions of program PWSCF are:
     Max number of different atomic species (ntypx) = 10
     Max number of k-points (npk) =  40000
     Max angular momentum in pseudopotentials (lmaxx) =  3

     Subspace diagonalization in iterative solution of the eigenvalue problem:
     a serial algorithm will be used

     bravais-lattice index     =            4
     lattice parameter (alat)  =      33.6810  a.u.
     unit-cell volume          =   37130.3117 (a.u.)^3
     number of atoms/cell      =           31
     number of atomic types    =            1
     number of electrons       =        93.00
     number of Kohn-Sham states=           56
     kinetic-energy cutoff     =      80.0000  Ry
     charge density cutoff     =     320.0000  Ry
     convergence threshold     =      1.0E-06
     mixing beta               =       0.4000
     number of iterations used =            8  plain     mixing
     Exchange-correlation      = PBE ( 1  4  3  4 0 0)
     nstep                     =          300

     celldm(1)=  33.680967  celldm(2)=   0.000000  celldm(3)=   1.122133
     celldm(4)=   0.000000  celldm(5)=   0.000000  celldm(6)=   0.000000

     crystal axes: (cart. coord. in units of alat)
               a(1) = (   1.000000   0.000000   0.000000 )
               a(2) = (  -0.500000   0.866025   0.000000 )
               a(3) = (   0.000000   0.000000   1.122133 )

     reciprocal axes: (cart. coord. in units 2 pi/alat)
               b(1) = (  1.000000  0.577350  0.000000 )
               b(2) = (  0.000000  1.154701  0.000000 )
               b(3) = (  0.000000  0.000000  0.891160 )

     PseudoPot. # 1 for Al read from file:
     ./Al.upf
     MD5 check sum: 4974d48a734c9d7d1eb6780a1419d19d
     Pseudo is Norm-conserving + core correction, Zval =  3.0
     Generated using ONCVPSP code by D. R. Hamann
     Using radial grid of 1876 points,  6 beta functions with:
                l(1) =   0
                l(2) =   0
                l(3) =   1
                l(4) =   1
                l(5) =   2
                l(6) =   2

     atomic species   valence    mass     pseudopotential
        Al             3.00    29.98200     Al( 1.00)

      2 Sym. Ops. (no inversion) found

   Cartesian axes

     site n.     atom                  positions (alat units)
         1           Al  tau(   1) = (  -0.0000000   0.1443393   0.0000000  )
         2           Al  tau(   2) = (   0.1250015   0.0721696   0.0000000  )
         3           Al  tau(   3) = (  -0.1249997   0.3608472   0.0000000  )
         4           Al  tau(   4) = (   0.0000018   0.2886775   0.0000000  )
         5           Al  tau(   5) = (  -0.2499994   0.5773550   0.0000000  )
         6           Al  tau(   6) = (  -0.1249979   0.5051854   0.0000000  )
         7           Al  tau(   7) = (  -0.3749991   0.7938629   0.0000000  )
         8           Al  tau(   8) = (  -0.2499976   0.7216932   0.0000000  )
         9           Al  tau(   9) = (   0.2500011   0.1443403   0.0000000  )
        10           Al  tau(  10) = (   0.3750027   0.0721706   0.0000000  )
        11           Al  tau(  11) = (   0.1250014   0.3608482   0.0000000  )
        12           Al  tau(  12) = (   0.2500030   0.2886785   0.0000000  )
        13           Al  tau(  13) = (   0.0000017   0.5773560   0.0000000  )
        14           Al  tau(  14) = (   0.1250033   0.5051864   0.0000000  )
        15           Al  tau(  15) = (   0.0000036   0.7216942   0.0000000  )
        16           Al  tau(  16) = (   0.5000023   0.1443413   0.0000000  )
        17           Al  tau(  17) = (   0.6250038   0.0721717   0.0000000  )
        18           Al  tau(  18) = (   0.3750026   0.3608492   0.0000000  )
        19           Al  tau(  19) = (   0.5000041   0.2886795   0.0000000  )
        20           Al  tau(  20) = (   0.2500029   0.5773571   0.0000000  )
        21           Al  tau(  21) = (   0.3750044   0.5051874   0.0000000  )
        22           Al  tau(  22) = (   0.1250032   0.7938649   0.0000000  )
        23           Al  tau(  23) = (   0.2500047   0.7216953   0.0000000  )
        24           Al  tau(  24) = (   0.7500035   0.1443423   0.0000000  )
        25           Al  tau(  25) = (   0.8750050   0.0721727   0.0000000  )
        26           Al  tau(  26) = (   0.6250038   0.3608502   0.0000000  )
        27           Al  tau(  27) = (   0.7500053   0.2886805   0.0000000  )
        28           Al  tau(  28) = (   0.5000041   0.5773581   0.0000000  )
        29           Al  tau(  29) = (   0.6250056   0.5051884   0.0000000  )
        30           Al  tau(  30) = (   0.3750044   0.7938660   0.0000000  )
        31           Al  tau(  31) = (   0.5000059   0.7216963   0.0000000  )

     number of k points=     1  Methfessel-Paxton smearing, width (Ry)=  0.0500
                       cart. coord. in units 2pi/alat
        k(    1) = (   0.0000000   0.0000000   0.0000000), wk =   2.0000000

     Initial potential from superposition of free atoms

     starting charge   92.92414, renormalised to   93.00000

     negative rho (up, down):  9.278E-05 0.000E+00
     Starting wfcs are  124 randomized atomic wfcs

     Self-consistent Calculation

     iteration #  1     ecut=    80.00 Ry     beta= 0.40
     Davidson diagonalization with overlap
     ethr =  1.00E-02,  avg # of iterations =  2.0

     total energy              =    -140.64269412 Ry
     Harris-Foulkes estimate   =    -141.23603411 Ry
     estimated scf accuracy    <       1.54791187 Ry

[...]

     End of self-consistent calculation

          k = 0.0000 0.0000 0.0000 (448403 PWs)   bands (ev):

    -9.9529  -9.4483  -9.4330  -9.4328  -9.4259  -9.4258  -9.1458  -8.4049
    -8.4048  -8.3880  -8.3880  -8.3797  -8.3034  -8.2568  -8.2568  -7.5864
    -6.9324  -6.9324  -6.8233  -6.4865  -6.4773  -6.4772  -6.3700  -6.3700
    -5.4639  -4.8435  -4.8433  -4.8369  -4.7357  -4.7355  -4.4781  -4.4681
    -4.4428  -4.4427  -4.1225  -4.1223  -3.9779  -3.4712  -3.4687  -3.4686
    -3.4577  -3.4576  -3.4016  -3.2745  -3.2744  -3.2223  -3.2071  -2.9743
    -2.9653  -2.9652  -2.9389  -2.5198  -2.5196  -2.4501  -2.4482  -2.4314

     the Fermi energy is    -3.0910 ev

!    total energy              =    -140.93611500 Ry
     Harris-Foulkes estimate   =    -140.93611566 Ry
     estimated scf accuracy    <       0.00000075 Ry

     The total energy is the sum of the following terms:

     one-electron contribution =    -502.03622135 Ry
     hartree contribution      =     259.76343726 Ry
     xc contribution           =     -61.33573698 Ry
     ewald contribution        =     162.75341060 Ry
     smearing contrib. (-TS)   =      -0.08100453 Ry

     convergence has been achieved in  18 iterations

     Forces acting on atoms (cartesian axes, Ry/au):

     atom    1 type  1   force =    -0.00116721    0.00060974    0.00000000
     atom    2 type  1   force =     0.00114980   -0.00062113    0.00000000
     atom    3 type  1   force =    -0.00002788   -0.00135324    0.00000000
     atom    4 type  1   force =     0.00043901    0.00026460    0.00000000
     atom    5 type  1   force =     0.00061408   -0.00325890    0.00000000
     atom    6 type  1   force =     0.00000593    0.00133440    0.00000000
     atom    7 type  1   force =    -0.00253946    0.00215256    0.00000000
     atom    8 type  1   force =     0.01308587    0.00755066    0.00000000
     atom    9 type  1   force =    -0.00318067    0.00105645    0.00000000
     atom   10 type  1   force =    -0.00006180   -0.01516436    0.00000000
     atom   11 type  1   force =     0.00204235    0.00117457    0.00000000
     atom   12 type  1   force =    -0.00156573   -0.00514084    0.00000000
     atom   13 type  1   force =    -0.00065076   -0.00327752    0.00000000
     atom   14 type  1   force =    -0.00525656    0.00121240    0.00000000
     atom   15 type  1   force =    -0.01317081    0.00752377    0.00000000
     atom   16 type  1   force =     0.00320646    0.00112018    0.00000000
     atom   17 type  1   force =    -0.00108826   -0.00059921    0.00000000
     atom   18 type  1   force =     0.00000236    0.00213673    0.00000000
     atom   19 type  1   force =     0.00152185   -0.00516770    0.00000000
     atom   20 type  1   force =     0.00186669   -0.00104947    0.00000000
     atom   21 type  1   force =    -0.00000031   -0.00000824    0.00000000
     atom   22 type  1   force =     0.00259699    0.00219087    0.00000000
     atom   23 type  1   force =    -0.00371190    0.00391446    0.00000000
     atom   24 type  1   force =     0.00110512    0.00060362    0.00000000
     atom   25 type  1   force =     0.00004035   -0.00048519    0.00000000
     atom   26 type  1   force =    -0.00199873    0.00115239    0.00000000
     atom   27 type  1   force =    -0.00042016    0.00030428    0.00000000
     atom   28 type  1   force =    -0.00186474   -0.00108148    0.00000000
     atom   29 type  1   force =     0.00528090    0.00126934    0.00000000
     atom   30 type  1   force =    -0.00000443   -0.00232031    0.00000000
     atom   31 type  1   force =     0.00375165    0.00395659    0.00000000

     Total force =     0.031180     Total SCF correction =     0.000690

     Computing stress (Cartesian axis) and pressure

          total   stress  (Ry/bohr**3)                   (kbar)     P=   -0.57
  -0.00000582  -0.00000002   0.00000000         -0.86     -0.00      0.00
  -0.00000002  -0.00000576   0.00000000         -0.00     -0.85      0.00
   0.00000000   0.00000000   0.00000000          0.00      0.00      0.00

     BFGS Geometry Optimization

     number of scf cycles    =   1
     number of bfgs steps    =   0

     enthalpy new            =    -140.9361149957 Ry

     new trust radius        =       0.0151683018 bohr
     new conv_thr            =       0.0000010000 Ry

     new unit-cell volume =  37119.56873 a.u.^3 (  5500.55251 Ang^3 )
     density =      0.28059 g/cm^3

CELL_PARAMETERS (alat= 33.68096681)
   0.999854578  -0.000000491   0.000000000
  -0.499927714   0.865901002   0.000000000
   0.000000000   0.000000000   1.122132950

ATOMIC_POSITIONS (angstrom)
Al      -0.000619422   2.572540211   0.000000000
Al       2.228210479   1.285778554   0.000000000
Al      -2.227589153   6.429810381   0.000000000
Al       0.000261847   5.144555985   0.000000000
Al      -4.454822043  10.287110885   0.000000000
Al      -2.227539846   9.003430803   0.000000000
Al      -6.684063138  14.148282883   0.000000000
Al      -4.448191800  12.865028621   0.000000000
Al       4.453488079   2.572792571   0.000000000
Al       6.682742250   1.278099725   0.000000000
Al       2.228679026   6.431163851   0.000000000
Al       4.454373965   5.141711966   0.000000000
Al      -0.000318450  10.287117036   0.000000000
Al       2.224848588   9.003382259   0.000000000
Al      -0.006911398  12.865030401   0.000000000
Al       8.912040336   2.572842292   0.000000000
Al      11.137371964   1.285822164   0.000000000
Al       6.682772490   6.431688939   0.000000000
[...]
     Check: negative starting charge=   -0.000121

[...]

     Writing output data file 15al_planar_2x2_vcr.save/
     Check: negative starting charge=   -0.000121
     NEW-OLD atomic charge density approx. for the potential
     Check: negative starting charge=   -0.000133

[...]

     WARNING: bfgs curvature condition failed, Theta= 0.722
     new trust radius        =       0.8000000000 bohr
     new conv_thr            =       0.0000010000 Ry

[...]

     CASE: enthalpy_new > enthalpy_old

[...]

     WARNING: info= 91 for Hessian
     new trust radius        =       0.1220093739 bohr
     new conv_thr            =       0.0000010000 Ry

[...]

     WARNING: info= 91 for Hessian
     new trust radius        =       0.0531107393 bohr
     new conv_thr            =       0.0000010000 Ry

[...]

     WARNING: info= 91 for Hessian

     WARNING: bfgs curvature condition failed, Theta= 0.987
     uphill step: resetting bfgs history

[...]

     Threshold (ethr) on eigenvalues was too large:
     Diagonalizing with lowered threshold

     Davidson diagonalization with overlap
     ethr =  4.73E-08,  avg # of iterations =  5.0

[...]

     iteration #  1     ecut=    80.00 Ry     beta= 0.40
     Davidson diagonalization with overlap
     c_bands:  1 eigenvalues not converged
     ethr =  1.00E-06,  avg # of iterations = 20.0

[...]

     Total force =     0.000371     Total SCF correction =     0.000066
     SCF correction compared to forces is large: reduce conv_thr to get better values

[...]

     Writing output data file 15al_planar_2x2_vcr.save/
     Check: negative starting charge=   -0.000131
     NEW-OLD atomic charge density approx. for the potential
     Check: negative starting charge=   -0.000131
     extrapolated charge   93.00003, renormalised to   93.00000

[...]

     Total force =     0.000182     Total SCF correction =     0.000013

[...]

     negative rho (up, down):  1.777E-08 0.000E+00
     extrapolated charge   92.99984, renormalised to   93.00000

[...]

     Writing output data file 15al_planar_2x2_vcr.save/
     Check: negative starting charge=   -0.000131
     NEW-OLD atomic charge density approx. for the potential
     Check: negative starting charge=   -0.000131
     extrapolated charge   93.00010, renormalised to   93.00000

[...]

     small trust_radius: resetting bfgs history

[...]

     number of scf cycles    = 182
     number of bfgs steps    = 180

     enthalpy old            =    -142.2701674861 Ry
     enthalpy new            =    -142.2701674866 Ry

     CASE: enthalpy_new < enthalpy_old

     WARNING: bfgs curvature condition failed, Theta= 0.979
     Message from routine bfgs:
     history already reset at previous step: stopping
     small trust_radius: resetting bfgs history

     new trust radius        =       0.0000219835 bohr
     new conv_thr            =       0.0000000100 Ry

     new unit-cell volume =  26092.80399 a.u.^3 (  3866.55458 Ang^3 )
     density =      0.39916 g/cm^3

[...]

ATOMIC_POSITIONS (angstrom)
Al      -0.662929141   1.704465123   0.000000000
Al       1.987936490   1.287337293   0.000000000
Al      -1.627193422   4.208695404   0.000000000
Al       1.023695506   3.791578931   0.000000000
Al      -3.555531541   9.217274322   0.000000000
Al      -2.591370370   6.712964046   0.000000000
Al      -4.519775449  11.721561982   0.000000000
Al      -1.868875805  11.304400377   0.000000000
Al       4.638898552   0.870229152   0.000000000
Al       7.289783053   0.452966096   0.000000000
Al       2.710413703   5.878677376   0.000000000
Al       3.674649324   3.374418691   0.000000000
Al      -0.904681414   8.800097128   0.000000000
Al       0.059491303   6.295861257   0.000000000
Al       0.782084813  10.887218850   0.000000000
Al       6.325553877   2.957339075   0.000000000
Al       8.976400566   2.540173689   0.000000000
Al       5.361318850   5.461584760   0.000000000
Al       8.012228581   5.044526610   0.000000000
Al       1.746232864   8.382928467   0.000000000
Al       4.397148051   7.965837733   0.000000000
Al       2.468661993  12.974412984   0.000000000
Al       3.432955453  10.470113369   0.000000000
Al      11.627314104   2.123157008   0.000000000
Al      12.591639884  -0.381086715   0.000000000
Al       7.048025534   7.548802893   0.000000000
Al      10.663019148   4.627422763   0.000000000
Al       8.734711358   9.636026627   0.000000000
Al       9.698881361   7.131722718   0.000000000
Al       6.083813998  10.053079883   0.000000000
Al       7.770418170  12.140304070   0.000000000

     Writing output data file 15al_planar_2x2_vcr.save/
     Check: negative starting charge=   -0.000131
     NEW-OLD atomic charge density approx. for the potential
     Check: negative starting charge=   -0.000131

[...]

     Threshold (ethr) on eigenvalues was too large:
     Diagonalizing with lowered threshold

     Davidson diagonalization with overlap
     ethr =  3.02E-10,  avg # of iterations =  2.0

[...]

     bfgs converged in 183 scf cycles and 181 bfgs steps
     (criteria: energy <  1.0E-05 Ry, force <  1.0E-04Ry/Bohr, cell <  5.0E-05kbar)

     End of BFGS Geometry Optimization

     Final enthalpy =    -142.2701674926 Ry
Begin final coordinates
     new unit-cell volume =  26092.80399 a.u.^3 (  3866.55458 Ang^3 )
     density =      0.39916 g/cm^3

CELL_PARAMETERS (alat= 33.68096681)
   0.838295343   0.000094697   0.000000000
  -0.419232988   0.725934444   0.000000000
   0.000000000   0.000000000   1.122132950

ATOMIC_POSITIONS (angstrom)
Al      -0.662929141   1.704465123   0.000000000
Al       1.987936490   1.287337293   0.000000000
Al      -1.627193422   4.208695404   0.000000000
Al       1.023695506   3.791578931   0.000000000
Al      -3.555531541   9.217274322   0.000000000
Al      -2.591370370   6.712964046   0.000000000
Al      -4.519775449  11.721561982   0.000000000
Al      -1.868875805  11.304400377   0.000000000
Al       4.638898552   0.870229152   0.000000000
Al       7.289783053   0.452966096   0.000000000
Al       2.710413703   5.878677376   0.000000000
Al       3.674649324   3.374418691   0.000000000
Al      -0.904681414   8.800097128   0.000000000
Al       0.059491303   6.295861257   0.000000000
Al       0.782084813  10.887218850   0.000000000
Al       6.325553877   2.957339075   0.000000000
Al       8.976400566   2.540173689   0.000000000
Al       5.361318850   5.461584760   0.000000000
Al       8.012228581   5.044526610   0.000000000
Al       1.746232864   8.382928467   0.000000000
Al       4.397148051   7.965837733   0.000000000
Al       2.468661993  12.974412984   0.000000000
Al       3.432955453  10.470113369   0.000000000
Al      11.627314104   2.123157008   0.000000000
Al      12.591639884  -0.381086715   0.000000000
Al       7.048025534   7.548802893   0.000000000
Al      10.663019148   4.627422763   0.000000000
Al       8.734711358   9.636026627   0.000000000
Al       9.698881361   7.131722718   0.000000000
Al       6.083813998  10.053079883   0.000000000
Al       7.770418170  12.140304070   0.000000000
End final coordinates

     Writing output data file 15al_planar_2x2_vcr.save/

     A final scf calculation at the relaxed structure.
     The G-vectors are recalculated for the final unit cell
     Results may differ from those at the preceding step.

     bravais-lattice index     =            4
     lattice parameter (alat)  =      33.6810  a.u.
     unit-cell volume          =   26092.8040 (a.u.)^3
     number of atoms/cell      =           31
     number of atomic types    =            1
     number of electrons       =        93.00
     number of Kohn-Sham states=           56
     kinetic-energy cutoff     =      80.0000  Ry
     charge density cutoff     =     320.0000  Ry
     convergence threshold     =      1.0E-08
     mixing beta               =       0.4000
     number of iterations used =            8  plain     mixing
     Exchange-correlation      = PBE ( 1  4  3  4 0 0)

     celldm(1)=  33.680967  celldm(2)=   0.000000  celldm(3)=   1.122133
     celldm(4)=   0.000000  celldm(5)=   0.000000  celldm(6)=   0.000000

     crystal axes: (cart. coord. in units of alat)
               a(1) = (   0.838295   0.000095   0.000000 )
               a(2) = (  -0.419233   0.725934   0.000000 )
               a(3) = (   0.000000   0.000000   1.122133 )

     reciprocal axes: (cart. coord. in units 2 pi/alat)
               b(1) = (  1.192819  0.688863  0.000000 )
               b(2) = ( -0.000156  1.377445  0.000000 )
               b(3) = (  0.000000  0.000000  0.891160 )

     PseudoPot. # 1 for Al read from file:
     ./Al.upf
     MD5 check sum: 4974d48a734c9d7d1eb6780a1419d19d
     Pseudo is Norm-conserving + core correction, Zval =  3.0
     Generated using ONCVPSP code by D. R. Hamann
     Using radial grid of 1876 points,  6 beta functions with:
                l(1) =   0
                l(2) =   0
                l(3) =   1
                l(4) =   1
                l(5) =   2
                l(6) =   2

     atomic species   valence    mass     pseudopotential
        Al             3.00    29.98200     Al( 1.00)

      2 Sym. Ops. (no inversion) found

   Cartesian axes

     site n.     atom                  positions (alat units)
         1           Al  tau(   1) = (  -0.0371947   0.0956318   0.0000000  )
         2           Al  tau(   2) = (   0.1115365   0.0722282   0.0000000  )
         3           Al  tau(   3) = (  -0.0912964   0.2361358   0.0000000  )
         4           Al  tau(   4) = (   0.0574361   0.2127328   0.0000000  )
         5           Al  tau(   5) = (  -0.1994890   0.5171504   0.0000000  )
         6           Al  tau(   6) = (  -0.1453931   0.3766419   0.0000000  )
         7           Al  tau(   7) = (  -0.2535894   0.6576575   0.0000000  )
         8           Al  tau(   8) = (  -0.1048564   0.6342520   0.0000000  )
         9           Al  tau(   9) = (   0.2602730   0.0488256   0.0000000  )
        10           Al  tau(  10) = (   0.4090053   0.0254144   0.0000000  )
        11           Al  tau(  11) = (   0.1520722   0.3298329   0.0000000  )
        12           Al  tau(  12) = (   0.2061723   0.1893273   0.0000000  )
        13           Al  tau(  13) = (  -0.0507586   0.4937439   0.0000000  )
        14           Al  tau(  14) = (   0.0033379   0.3532397   0.0000000  )
        15           Al  tau(  15) = (   0.0438802   0.6108454   0.0000000  )
        16           Al  tau(  16) = (   0.3549056   0.1659264   0.0000000  )
        17           Al  tau(  17) = (   0.5036357   0.1425206   0.0000000  )
        18           Al  tau(  18) = (   0.3008056   0.3064312   0.0000000  )
        19           Al  tau(  19) = (   0.4495393   0.2830315   0.0000000  )
        20           Al  tau(  20) = (   0.0979753   0.4703380   0.0000000  )
        21           Al  tau(  21) = (   0.2467092   0.4469364   0.0000000  )
        22           Al  tau(  22) = (   0.1385083   0.7279508   0.0000000  )
        23           Al  tau(  23) = (   0.1926116   0.5874430   0.0000000  )
        24           Al  tau(  24) = (   0.6523696   0.1191232   0.0000000  )
        25           Al  tau(  25) = (   0.7064747  -0.0213815   0.0000000  )
        26           Al  tau(  26) = (   0.3954411   0.4235380   0.0000000  )
        27           Al  tau(  27) = (   0.5982663   0.2596292   0.0000000  )
        28           Al  tau(  28) = (   0.4900754   0.5406451   0.0000000  )
        29           Al  tau(  29) = (   0.5441717   0.4001371   0.0000000  )
        30           Al  tau(  30) = (   0.3413424   0.5640446   0.0000000  )
        31           Al  tau(  31) = (   0.4359721   0.6811518   0.0000000  )

     number of k points=     1  Methfessel-Paxton smearing, width (Ry)=  0.0500
                       cart. coord. in units 2pi/alat
        k(    1) = (   0.0000000   0.0000000   0.0000000), wk =   2.0000000

     Initial potential from superposition of free atoms

     starting charge   92.92414, renormalised to   93.00000

     negative rho (up, down):  7.270E-05 0.000E+00
     Starting wfcs are  124 randomized atomic wfcs

     Self-consistent Calculation

[...]

     negative rho (up, down):  3.499E-08 0.000E+00

[...]

     total energy              =    -142.26988394 Ry
     Harris-Foulkes estimate   =    -142.26988395 Ry
     estimated scf accuracy    <       0.00000005 Ry

     iteration # 13     ecut=    80.00 Ry     beta= 0.40
     Davidson diagonalization with overlap
     ethr =  4.94E-11,  avg # of iterations =  4.0

     End of self-consistent calculation

          k = 0.0000 0.0000 0.0000 (315207 PWs)   bands (ev):

   -11.6236 -10.7478 -10.7477 -10.7477 -10.7477 -10.7477 -10.7477  -9.0216
    -9.0216  -9.0216  -9.0216  -9.0216  -9.0216  -8.1738  -8.1738  -8.1737
    -8.1737  -8.1737  -8.1737  -5.7782  -5.7781  -5.7781  -5.7781  -5.7781
    -5.7781  -5.7076  -5.7076  -5.7075  -5.7075  -5.7075  -5.7075  -4.8691
    -4.0234  -4.0234  -4.0233  -4.0233  -4.0233  -4.0233  -3.7523  -3.7523
    -3.7522  -3.7522  -3.7521  -3.7521  -2.3346  -2.3345  -2.3345  -2.3345
    -2.3345  -2.3345  -1.8112  -1.8111  -1.8111  -1.8111  -1.8111  -1.8110

     the Fermi energy is    -2.4051 ev

!    total energy              =    -142.26988393 Ry
     Harris-Foulkes estimate   =    -142.26988394 Ry
     estimated scf accuracy    <          9.6E-09 Ry

     The total energy is the sum of the following terms:

     one-electron contribution =    -702.58176512 Ry
     hartree contribution      =     360.19384505 Ry
     xc contribution           =     -63.84992049 Ry
     ewald contribution        =     264.01462160 Ry
     smearing contrib. (-TS)   =      -0.04666497 Ry

     convergence has been achieved in  13 iterations

     Forces acting on atoms (cartesian axes, Ry/au):

     atom    1 type  1   force =     0.00000121   -0.00000972    0.00000000
     atom    2 type  1   force =     0.00000896   -0.00000079    0.00000000
     atom    3 type  1   force =     0.00000186    0.00000164    0.00000000
     atom    4 type  1   force =     0.00000711    0.00000684    0.00000000
     atom    5 type  1   force =    -0.00000479   -0.00000618    0.00000000
     atom    6 type  1   force =    -0.00000237   -0.00000554    0.00000000
     atom    7 type  1   force =    -0.00000563   -0.00000527    0.00000000
     atom    8 type  1   force =     0.00000011   -0.00000699    0.00000000
     atom    9 type  1   force =    -0.00000046   -0.00000675    0.00000000
     atom   10 type  1   force =     0.00001140    0.00001620    0.00000000
     atom   11 type  1   force =     0.00000040    0.00000229    0.00000000
     atom   12 type  1   force =    -0.00000576    0.00001250    0.00000000
     atom   13 type  1   force =     0.00000826    0.00000496    0.00000000
     atom   14 type  1   force =     0.00000711   -0.00000865    0.00000000
     atom   15 type  1   force =    -0.00000912   -0.00000387    0.00000000
     atom   16 type  1   force =     0.00000322   -0.00000055    0.00000000
     atom   17 type  1   force =     0.00000469    0.00000618    0.00000000
     atom   18 type  1   force =     0.00000258    0.00000386    0.00000000
     atom   19 type  1   force =    -0.00000938   -0.00000526    0.00000000
     atom   20 type  1   force =     0.00000380    0.00000654    0.00000000
     atom   21 type  1   force =    -0.00000301    0.00000456    0.00000000
     atom   22 type  1   force =     0.00000070   -0.00000320    0.00000000
     atom   23 type  1   force =    -0.00000223    0.00000316    0.00000000
     atom   24 type  1   force =    -0.00000403    0.00000178    0.00000000
     atom   25 type  1   force =    -0.00000739   -0.00000877    0.00000000
     atom   26 type  1   force =    -0.00000569   -0.00000003    0.00000000
     atom   27 type  1   force =     0.00001105   -0.00000025    0.00000000
     atom   28 type  1   force =    -0.00000716   -0.00000038    0.00000000
     atom   29 type  1   force =     0.00000108    0.00000337    0.00000000
     atom   30 type  1   force =    -0.00000367   -0.00000102    0.00000000
     atom   31 type  1   force =    -0.00000285   -0.00000065    0.00000000

     Total force =     0.000046     Total SCF correction =     0.000103
     SCF correction compared to forces is large: reduce conv_thr to get better values

     Computing stress (Cartesian axis) and pressure

          total   stress  (Ry/bohr**3)                   (kbar)     P=    0.00
   0.00000004   0.00000001   0.00000000          0.01      0.00      0.00
   0.00000001   0.00000005   0.00000000          0.00      0.01      0.00
   0.00000000   0.00000000  -0.00000002          0.00      0.00     -0.00

     Writing output data file 15al_planar_2x2_vcr.save/

     General routines

     Parallel routines

      36h

   This run was terminated on:  21:40:50  26Nov2020

   JOB DONE.