     Program PWSCF v.6.3MaX starts on 25Nov2020 at 22:58: 9

     R & G space division:  proc/nbgrp/npool/nimage =       8
     Waiting for input...
     Reading input from standard input

     Current dimensions of program PWSCF are:
     Max number of different atomic species (ntypx) = 10
     Max number of k-points (npk) =  40000
     Max angular momentum in pseudopotentials (lmaxx) =  3

     Subspace diagonalization in iterative solution of the eigenvalue problem:
     a serial algorithm will be used

     bravais-lattice index     =            4
     lattice parameter (alat)  =      33.6810  a.u.
     unit-cell volume          =   37130.3117 (a.u.)^3
     number of atoms/cell      =           31
     number of atomic types    =            1
     number of electrons       =        93.00
     number of Kohn-Sham states=           56
     kinetic-energy cutoff     =      80.0000  Ry
     charge density cutoff     =     320.0000  Ry
     convergence threshold     =      1.0E-06
     mixing beta               =       0.4000
     number of iterations used =            8  plain     mixing
     Exchange-correlation      = PBE ( 1  4  3  4 0 0)
     nstep                     =          300

     celldm(1)=  33.680967  celldm(2)=   0.000000  celldm(3)=   1.122133
     celldm(4)=   0.000000  celldm(5)=   0.000000  celldm(6)=   0.000000

     crystal axes: (cart. coord. in units of alat)
               a(1) = (   1.000000   0.000000   0.000000 )
               a(2) = (  -0.500000   0.866025   0.000000 )
               a(3) = (   0.000000   0.000000   1.122133 )

     reciprocal axes: (cart. coord. in units 2 pi/alat)
               b(1) = (  1.000000  0.577350  0.000000 )
               b(2) = (  0.000000  1.154701  0.000000 )
               b(3) = (  0.000000  0.000000  0.891160 )

     PseudoPot. # 1 for Al read from file:
     ./Al.upf
     MD5 check sum: 4974d48a734c9d7d1eb6780a1419d19d
     Pseudo is Norm-conserving + core correction, Zval =  3.0
     Generated using ONCVPSP code by D. R. Hamann
     Using radial grid of 1876 points,  6 beta functions with:
                l(1) =   0
                l(2) =   0
                l(3) =   1
                l(4) =   1
                l(5) =   2
                l(6) =   2

     atomic species   valence    mass     pseudopotential
        Al             3.00    29.98200     Al( 1.00)

      4 Sym. Ops. (no inversion) found ( 2 have fractional translation)

   Cartesian axes

     site n.     atom                  positions (alat units)
         1           Al  tau(   1) = (  -0.0000000   0.1443393   0.0000000  )
         2           Al  tau(   2) = (   0.1250015   0.0721696   0.0000000  )
         3           Al  tau(   3) = (  -0.1249997   0.3608472   0.0000000  )
         4           Al  tau(   4) = (   0.0000018   0.2886775   0.0000000  )
         5           Al  tau(   5) = (  -0.2499994   0.5773550   0.0000000  )
         6           Al  tau(   6) = (  -0.1249979   0.5051854   0.0000000  )
         7           Al  tau(   7) = (  -0.3749991   0.7938629   0.0000000  )
         8           Al  tau(   8) = (  -0.2499976   0.7216932   0.0000000  )
         9           Al  tau(   9) = (   0.2500011   0.1443403   0.0000000  )
        10           Al  tau(  10) = (   0.3750027   0.0721706   0.0000000  )
        11           Al  tau(  11) = (   0.1250014   0.3608482   0.0000000  )
        12           Al  tau(  12) = (   0.0000017   0.5773560   0.0000000  )
        13           Al  tau(  13) = (   0.1250033   0.5051864   0.0000000  )
        14           Al  tau(  14) = (  -0.1249980   0.7938639   0.0000000  )
        15           Al  tau(  15) = (   0.0000036   0.7216942   0.0000000  )
        16           Al  tau(  16) = (   0.5000023   0.1443413   0.0000000  )
        17           Al  tau(  17) = (   0.6250038   0.0721717   0.0000000  )
        18           Al  tau(  18) = (   0.3750026   0.3608492   0.0000000  )
        19           Al  tau(  19) = (   0.5000041   0.2886795   0.0000000  )
        20           Al  tau(  20) = (   0.2500029   0.5773571   0.0000000  )
        21           Al  tau(  21) = (   0.3750044   0.5051874   0.0000000  )
        22           Al  tau(  22) = (   0.1250032   0.7938649   0.0000000  )
        23           Al  tau(  23) = (   0.2500047   0.7216953   0.0000000  )
        24           Al  tau(  24) = (   0.7500035   0.1443423   0.0000000  )
        25           Al  tau(  25) = (   0.8750050   0.0721727   0.0000000  )
        26           Al  tau(  26) = (   0.6250038   0.3608502   0.0000000  )
        27           Al  tau(  27) = (   0.7500053   0.2886805   0.0000000  )
        28           Al  tau(  28) = (   0.5000041   0.5773581   0.0000000  )
        29           Al  tau(  29) = (   0.6250056   0.5051884   0.0000000  )
        30           Al  tau(  30) = (   0.3750044   0.7938660   0.0000000  )
        31           Al  tau(  31) = (   0.5000059   0.7216963   0.0000000  )

     number of k points=     1  Methfessel-Paxton smearing, width (Ry)=  0.0500
                       cart. coord. in units 2pi/alat
        k(    1) = (   0.0000000   0.0000000   0.0000000), wk =   2.0000000

     Initial potential from superposition of free atoms

     starting charge   92.92414, renormalised to   93.00000

     negative rho (up, down):  9.278E-05 0.000E+00
     Starting wfcs are  124 randomized atomic wfcs

     Self-consistent Calculation

     iteration #  1     ecut=    80.00 Ry     beta= 0.40
     Davidson diagonalization with overlap
     ethr =  1.00E-02,  avg # of iterations =  2.0

     total energy              =    -140.64219044 Ry
     Harris-Foulkes estimate   =    -141.23601632 Ry
     estimated scf accuracy    <       1.54855080 Ry

[...]

     negative rho (up, down):  7.930E-08 0.000E+00

[...]

     End of self-consistent calculation

          k = 0.0000 0.0000 0.0000 (448403 PWs)   bands (ev):

    -9.9528  -9.4483  -9.4332  -9.4327  -9.4259  -9.4255  -9.1459  -8.4047
    -8.4046  -8.3882  -8.3880  -8.3797  -8.3031  -8.2570  -8.2568  -7.5865
    -6.9325  -6.9323  -6.8232  -6.4865  -6.4772  -6.4770  -6.3701  -6.3700
    -5.4640  -4.8436  -4.8432  -4.8368  -4.7357  -4.7354  -4.4780  -4.4680
    -4.4427  -4.4427  -4.1225  -4.1221  -3.9778  -3.4712  -3.4688  -3.4686
    -3.4576  -3.4574  -3.4017  -3.2744  -3.2743  -3.2224  -3.2075  -2.9743
    -2.9654  -2.9651  -2.9388  -2.5198  -2.5195  -2.4500  -2.4482  -2.4313

     the Fermi energy is    -3.0910 ev

!    total energy              =    -140.93611219 Ry
     Harris-Foulkes estimate   =    -140.93611270 Ry
     estimated scf accuracy    <       0.00000057 Ry

     The total energy is the sum of the following terms:

     one-electron contribution =    -502.03529539 Ry
     hartree contribution      =     259.76209786 Ry
     xc contribution           =     -61.33563617 Ry
     ewald contribution        =     162.75371665 Ry
     smearing contrib. (-TS)   =      -0.08099513 Ry

     convergence has been achieved in  17 iterations

[...]

     Forces acting on atoms (cartesian axes, Ry/au):

     atom    1 type  1   force =     0.00111528    0.00060686    0.00000000
     atom    2 type  1   force =    -0.00319498   -0.00105762    0.00000000
     atom    3 type  1   force =     0.00376810   -0.00395239    0.00000000
     atom    4 type  1   force =    -0.00258338   -0.00215828    0.00000000
     atom    5 type  1   force =     0.00000000    0.00000694    0.00000000
     atom    6 type  1   force =    -0.00187402    0.00105584    0.00000000
     atom    7 type  1   force =    -0.00155696    0.00514258    0.00000000
     atom    8 type  1   force =     0.00000000   -0.00214026    0.00000000
     atom    9 type  1   force =     0.00000000    0.01516380    0.00000000
     atom   10 type  1   force =     0.00319498   -0.00105762    0.00000000
     atom   11 type  1   force =     0.01312862   -0.00751585    0.00000000
     atom   12 type  1   force =     0.00529620   -0.00121556    0.00000000
     atom   13 type  1   force =     0.00063561    0.00325162    0.00000000
     atom   14 type  1   force =     0.00155696    0.00514258    0.00000000
     atom   15 type  1   force =    -0.00201873   -0.00118442    0.00000000
     atom   16 type  1   force =    -0.00111528    0.00060686    0.00000000
     atom   17 type  1   force =     0.00112882   -0.00056009    0.00000000
     atom   18 type  1   force =    -0.01312862   -0.00751585    0.00000000
     atom   19 type  1   force =     0.00258338   -0.00215828    0.00000000
     atom   20 type  1   force =     0.00000000   -0.00134038    0.00000000
     atom   21 type  1   force =    -0.00063561    0.00325162    0.00000000
     atom   22 type  1   force =    -0.00041625   -0.00032854    0.00000000
     atom   23 type  1   force =     0.00000000    0.00135409    0.00000000
     atom   24 type  1   force =     0.00000000    0.00049884    0.00000000
     atom   25 type  1   force =    -0.00112882   -0.00056009    0.00000000
     atom   26 type  1   force =    -0.00376810   -0.00395239    0.00000000
     atom   27 type  1   force =     0.00000000    0.00228868    0.00000000
     atom   28 type  1   force =    -0.00529620   -0.00121556    0.00000000
     atom   29 type  1   force =     0.00187402    0.00105584    0.00000000
     atom   30 type  1   force =     0.00041625   -0.00032854    0.00000000
     atom   31 type  1   force =     0.00201873   -0.00118442    0.00000000

     Total force =     0.031180     Total SCF correction =     0.000612

     Computing stress (Cartesian axis) and pressure

     negative rho (up, down):  8.596E-05 0.000E+00
          total   stress  (Ry/bohr**3)                   (kbar)     P=   -0.57
  -0.00000583   0.00000000   0.00000000         -0.86      0.00      0.00
   0.00000000  -0.00000575   0.00000000          0.00     -0.85      0.00
   0.00000000   0.00000000  -0.00000001          0.00      0.00     -0.00

     BFGS Geometry Optimization

     number of scf cycles    =   1
     number of bfgs steps    =   0

     enthalpy new            =    -140.9361121907 Ry

     new trust radius        =       0.0151637986 bohr
     new conv_thr            =       0.0000010000 Ry

     new unit-cell volume =  37119.57186 a.u.^3 (  5500.55297 Ang^3 )
     density =      0.28059 g/cm^3

CELL_PARAMETERS (alat= 33.68096681)
   0.999854357  -0.000000000   0.000000000
  -0.499927179   0.865901020   0.000000000
   0.000000000   0.000000000   1.122132950

ATOMIC_POSITIONS (angstrom)
Al       0.000589507   2.572539472   0.000000000
Al       2.225911795   1.285549094   0.000000000
Al      -2.225577051   6.428436041   0.000000000
Al      -0.001334772   5.143275606   0.000000000
Al      -4.455140916  10.288839794   0.000000000
Al      -2.228529616   9.003285072   0.000000000
Al      -6.683534870  14.149865942   0.000000000
Al      -4.455108236  12.859902885   0.000000000
Al       4.455171253   2.580259758   0.000000000
Al       6.684464563   1.285567287   0.000000000
Al       2.234547442   6.426568799   0.000000000
Al       0.002833141  10.288211163   0.000000000
Al       2.227970069   9.004465058   0.000000000
Al      -2.226715453  14.149884135   0.000000000
Al      -0.001004505  12.860426816   0.000000000
[...]
     enthalpy new            =    -140.9371132060 Ry

     CASE: enthalpy_new < enthalpy_old

     WARNING: bfgs curvature condition failed, Theta= 0.852
     new trust radius        =       0.0227424310 bohr
     new conv_thr            =       0.0000010000 Ry

[...]

     iteration #  3     ecut=    80.00 Ry     beta= 0.40
     Davidson diagonalization with overlap
     c_bands:  1 eigenvalues not converged
     ethr =  8.19E-07,  avg # of iterations = 20.0

[...]

     Writing output data file 12al_planar_2x2_vcr.save/
     NEW-OLD atomic charge density approx. for the potential

[...]

     Writing output data file 12al_planar_2x2_vcr.save/
     NEW-OLD atomic charge density approx. for the potential
     Check: negative starting charge=   -0.000121

[...]

     Writing output data file 12al_planar_2x2_vcr.save/
     Check: negative starting charge=   -0.000121
     NEW-OLD atomic charge density approx. for the potential
     Check: negative starting charge=   -0.000133

[...]

     Threshold (ethr) on eigenvalues was too large:
     Diagonalizing with lowered threshold

     Davidson diagonalization with overlap
     ethr =  7.92E-08,  avg # of iterations =  8.0

[...]

     Total force =     0.000539     Total SCF correction =     0.000058
     SCF correction compared to forces is large: reduce conv_thr to get better values

[...]

     iteration #  1     ecut=    80.00 Ry     beta= 0.40
     Davidson diagonalization with overlap
     c_bands:  1 eigenvalues not converged
     ethr =  1.00E-06,  avg # of iterations = 20.0

[...]

     WARNING: bfgs curvature condition failed, Theta= 0.978
     new trust radius        =       0.2415192497 bohr
     new conv_thr            =       0.0000010000 Ry

[...]

     Total force =     0.000472     Total SCF correction =     0.000025

[...]

     CASE: enthalpy_new < enthalpy_old

     new trust radius        =       0.0001755300 bohr
     new conv_thr            =       0.0000000100 Ry

[...]

     CASE: enthalpy_new > enthalpy_old

     new trust radius        =       0.0000676624 bohr

     trust_radius < trust_radius_min

     resetting bfgs history

     new conv_thr            =       0.0000000100 Ry

[...]

     negative rho (up, down):  2.347E-05 0.000E+00
     extrapolated charge   92.99994, renormalised to   93.00000

[...]

     number of scf cycles    = 234
     number of bfgs steps    = 232

     enthalpy old            =    -142.0791798437 Ry
     enthalpy new            =    -142.0791798382 Ry

     CASE: enthalpy_new > enthalpy_old

     new trust radius        =       0.0000000392 bohr

     trust_radius < trust_radius_min

     resetting bfgs history

     Message from routine bfgs:
     history already reset at previous step: stopping
     new conv_thr            =       0.0000000100 Ry

     new unit-cell volume =  27062.12957 a.u.^3 (  4010.19381 Ang^3 )
     density =      0.38486 g/cm^3

[...]

ATOMIC_POSITIONS (angstrom)
Al      -1.132284648   1.538796438   0.000000000
Al       1.132337527   2.855173419   0.000000000
Al      -2.458957888   3.852689845   0.000000000
Al      -0.206123358   5.157808263   0.000000000
Al      -3.802851313   8.787740895   0.000000000
Al      -1.522070251   7.469471764   0.000000000
Al      -5.146705938  13.722776244   0.000000000
Al      -3.802823417  11.424443248   0.000000000
Al       3.802877208   2.855203645   0.000000000
Al       6.473445784   2.855188958   0.000000000
Al       2.469214596   5.165698149   0.000000000
Al       1.137335539  10.089963451   0.000000000
Al       1.137359128   7.485520808   0.000000000
Al      -2.458969792  13.722791783   0.000000000
Al      -1.522063164  10.105979775   0.000000000
Al       8.738039064   1.538827516   0.000000000
Al      10.074962220  -0.771712770   0.000000000
Al       5.136566714   5.165713688   0.000000000
Al       7.811933565   5.157839341   0.000000000
Al       3.802904103   7.477425656   0.000000000
Al       6.468477974   7.485536347   0.000000000
Al      -0.206119129  12.417666026   0.000000000
Al       3.802931998  10.098070692   0.000000000
Al      11.408632623   1.538786319   0.000000000
Al      12.742331923  -0.771697231   0.000000000
Al      10.064739199   3.852736462   0.000000000
Al      11.408660519   6.151046588   0.000000000
Al       6.468472667  10.089994529   0.000000000
Al       9.127907353   7.469518381   0.000000000
Al       7.811954230  12.417681565   0.000000000
Al       9.127927161  10.106010853   0.000000000

     Writing output data file 12al_planar_2x2_vcr.save/
     Check: negative starting charge=   -0.000135
     NEW-OLD atomic charge density approx. for the potential
     Check: negative starting charge=   -0.000135

[...]

     Threshold (ethr) on eigenvalues was too large:
     Diagonalizing with lowered threshold

     Davidson diagonalization with overlap
     ethr =  2.55E-10,  avg # of iterations =  2.0

[...]

     bfgs converged in 235 scf cycles and 232 bfgs steps
     (criteria: energy <  1.0E-05 Ry, force <  1.0E-04Ry/Bohr, cell <  5.0E-05kbar)

     End of BFGS Geometry Optimization

     Final enthalpy =    -142.0791798386 Ry
Begin final coordinates
     new unit-cell volume =  27062.12957 a.u.^3 (  4010.19381 Ang^3 )
     density =      0.38486 g/cm^3

CELL_PARAMETERS (alat= 33.68096681)
   0.853462893  -0.000000000   0.000000000
  -0.426731446   0.739570129   0.000000000
   0.000000000   0.000000000   1.122132950

ATOMIC_POSITIONS (angstrom)
Al      -1.132284648   1.538796438   0.000000000
Al       1.132337527   2.855173419   0.000000000
Al      -2.458957888   3.852689845   0.000000000
Al      -0.206123358   5.157808263   0.000000000
Al      -3.802851313   8.787740895   0.000000000
Al      -1.522070251   7.469471764   0.000000000
Al      -5.146705938  13.722776244   0.000000000
Al      -3.802823417  11.424443248   0.000000000
Al       3.802877208   2.855203645   0.000000000
Al       6.473445784   2.855188958   0.000000000
Al       2.469214596   5.165698149   0.000000000
Al       1.137335539  10.089963451   0.000000000
Al       1.137359128   7.485520808   0.000000000
Al      -2.458969792  13.722791783   0.000000000
Al      -1.522063164  10.105979775   0.000000000
Al       8.738039064   1.538827516   0.000000000
Al      10.074962220  -0.771712770   0.000000000
Al       5.136566714   5.165713688   0.000000000
Al       7.811933565   5.157839341   0.000000000
Al       3.802904103   7.477425656   0.000000000
Al       6.468477974   7.485536347   0.000000000
Al      -0.206119129  12.417666026   0.000000000
Al       3.802931998  10.098070692   0.000000000
Al      11.408632623   1.538786319   0.000000000
Al      12.742331923  -0.771697231   0.000000000
Al      10.064739199   3.852736462   0.000000000
Al      11.408660519   6.151046588   0.000000000
Al       6.468472667  10.089994529   0.000000000
Al       9.127907353   7.469518381   0.000000000
Al       7.811954230  12.417681565   0.000000000
Al       9.127927161  10.106010853   0.000000000
End final coordinates

     Writing output data file 12al_planar_2x2_vcr.save/

     A final scf calculation at the relaxed structure.
     The G-vectors are recalculated for the final unit cell
     Results may differ from those at the preceding step.

     bravais-lattice index     =            4
     lattice parameter (alat)  =      33.6810  a.u.
     unit-cell volume          =   27062.1296 (a.u.)^3
     number of atoms/cell      =           31
     number of atomic types    =            1
     number of electrons       =        93.00
     number of Kohn-Sham states=           56
     kinetic-energy cutoff     =      80.0000  Ry
     charge density cutoff     =     320.0000  Ry
     convergence threshold     =      1.0E-08
     mixing beta               =       0.4000
     number of iterations used =            8  plain     mixing
     Exchange-correlation      = PBE ( 1  4  3  4 0 0)

     celldm(1)=  33.680967  celldm(2)=   0.000000  celldm(3)=   1.122133
     celldm(4)=   0.000000  celldm(5)=   0.000000  celldm(6)=   0.000000

     crystal axes: (cart. coord. in units of alat)
               a(1) = (   0.853463  -0.000000   0.000000 )
               a(2) = (  -0.426731   0.739570   0.000000 )
               a(3) = (   0.000000   0.000000   1.122133 )

     reciprocal axes: (cart. coord. in units 2 pi/alat)
               b(1) = (  1.171697  0.676068  0.000000 )
               b(2) = (  0.000000  1.352137  0.000000 )
               b(3) = (  0.000000  0.000000  0.891160 )

     PseudoPot. # 1 for Al read from file:
     ./Al.upf
     MD5 check sum: 4974d48a734c9d7d1eb6780a1419d19d
     Pseudo is Norm-conserving + core correction, Zval =  3.0
     Generated using ONCVPSP code by D. R. Hamann
     Using radial grid of 1876 points,  6 beta functions with:
                l(1) =   0
                l(2) =   0
                l(3) =   1
                l(4) =   1
                l(5) =   2
                l(6) =   2

     atomic species   valence    mass     pseudopotential
        Al             3.00    29.98200     Al( 1.00)

      4 Sym. Ops. (no inversion) found ( 2 have fractional translation)

   Cartesian axes

     site n.     atom                  positions (alat units)
         1           Al  tau(   1) = (  -0.0635287   0.0863367   0.0000000  )
         2           Al  tau(   2) = (   0.0635317   0.1601942   0.0000000  )
         3           Al  tau(   3) = (  -0.1379639   0.2161615   0.0000000  )
         4           Al  tau(   4) = (  -0.0115649   0.2893873   0.0000000  )
         5           Al  tau(   5) = (  -0.2133652   0.4930507   0.0000000  )
         6           Al  tau(   6) = (  -0.0853983   0.4190870   0.0000000  )
         7           Al  tau(   7) = (  -0.2887644   0.7699390   0.0000000  )
         8           Al  tau(   8) = (  -0.2133637   0.6409872   0.0000000  )
         9           Al  tau(   9) = (   0.2133667   0.1601959   0.0000000  )
        10           Al  tau(  10) = (   0.3632033   0.1601951   0.0000000  )
        11           Al  tau(  11) = (   0.1385394   0.2898300   0.0000000  )
        12           Al  tau(  12) = (   0.0638121   0.5661140   0.0000000  )
        13           Al  tau(  13) = (   0.0638134   0.4199875   0.0000000  )
        14           Al  tau(  14) = (  -0.1379646   0.7699398   0.0000000  )
        15           Al  tau(  15) = (  -0.0853979   0.5670126   0.0000000  )
        16           Al  tau(  16) = (   0.4902621   0.0863385   0.0000000  )
        17           Al  tau(  17) = (   0.5652724  -0.0432982   0.0000000  )
        18           Al  tau(  18) = (   0.2881955   0.2898309   0.0000000  )
        19           Al  tau(  19) = (   0.4383014   0.2893891   0.0000000  )
        20           Al  tau(  20) = (   0.2133682   0.4195333   0.0000000  )
        21           Al  tau(  21) = (   0.3629246   0.4199883   0.0000000  )
        22           Al  tau(  22) = (  -0.0115647   0.6967136   0.0000000  )
        23           Al  tau(  23) = (   0.2133698   0.5665689   0.0000000  )
        24           Al  tau(  24) = (   0.6401001   0.0863361   0.0000000  )
        25           Al  tau(  25) = (   0.7149295  -0.0432973   0.0000000  )
        26           Al  tau(  26) = (   0.5646988   0.2161641   0.0000000  )
        27           Al  tau(  27) = (   0.6401017   0.3451146   0.0000000  )
        28           Al  tau(  28) = (   0.3629243   0.5661158   0.0000000  )
        29           Al  tau(  29) = (   0.5121363   0.4190896   0.0000000  )
        30           Al  tau(  30) = (   0.4383026   0.6967145   0.0000000  )
        31           Al  tau(  31) = (   0.5121374   0.5670144   0.0000000  )

     number of k points=     1  Methfessel-Paxton smearing, width (Ry)=  0.0500
                       cart. coord. in units 2pi/alat
        k(    1) = (   0.0000000   0.0000000   0.0000000), wk =   2.0000000

     Initial potential from superposition of free atoms

     starting charge   92.92414, renormalised to   93.00000

     negative rho (up, down):  7.365E-05 0.000E+00
     Starting wfcs are  124 randomized atomic wfcs

     Self-consistent Calculation

[...]

     total energy              =    -142.07896245 Ry
     Harris-Foulkes estimate   =    -142.07896245 Ry
     estimated scf accuracy    <       0.00000001 Ry

     iteration # 21     ecut=    80.00 Ry     beta= 0.40
     Davidson diagonalization with overlap
     ethr =  1.10E-11,  avg # of iterations =  1.0

[...]

     End of self-consistent calculation

          k = 0.0000 0.0000 0.0000 (326797 PWs)   bands (ev):

   -11.4056 -10.8027 -10.7274 -10.4912 -10.4884 -10.4183 -10.4171  -9.0131
    -9.0130  -8.9802  -8.8657  -8.8627  -8.4488  -8.3006  -8.0985  -8.0949
    -7.9199  -7.9189  -7.8245  -5.9730  -5.9722  -5.7649  -5.7177  -5.7033
    -5.6587  -5.6581  -5.5981  -5.5952  -5.3198  -5.3155  -5.2907  -4.7497
    -4.3890  -4.3849  -4.0945  -4.0396  -3.9231  -3.8970  -3.8953  -3.8414
    -3.8409  -3.7025  -3.5708  -3.5690  -2.3931  -2.3925  -2.3645  -2.3142
    -2.3116  -2.2736  -2.1877  -2.0372  -1.8230  -1.8213  -1.6913  -1.5511

     the Fermi energy is    -2.4471 ev

!    total energy              =    -142.07896244 Ry
     Harris-Foulkes estimate   =    -142.07896244 Ry
     estimated scf accuracy    <          4.9E-09 Ry

     The total energy is the sum of the following terms:

     one-electron contribution =    -677.71925556 Ry
     hartree contribution      =     347.82165392 Ry
     xc contribution           =     -63.48544847 Ry
     ewald contribution        =     251.35386269 Ry
     smearing contrib. (-TS)   =      -0.04977501 Ry

     convergence has been achieved in  21 iterations

     negative rho (up, down):  2.347E-05 0.000E+00

     Forces acting on atoms (cartesian axes, Ry/au):

     atom    1 type  1   force =    -0.00009698    0.00008245    0.00000000
     atom    2 type  1   force =     0.00009821   -0.00008584    0.00000000
     atom    3 type  1   force =    -0.00000174   -0.00005877    0.00000000
     atom    4 type  1   force =    -0.00001452    0.00007661    0.00000000
     atom    5 type  1   force =    -0.00000000   -0.00000123    0.00000000
     atom    6 type  1   force =     0.00000464    0.00008199    0.00000000
     atom    7 type  1   force =    -0.00000166    0.00005739    0.00000000
     atom    8 type  1   force =     0.00000000    0.00008758    0.00000000
     atom    9 type  1   force =    -0.00000000   -0.00001900    0.00000000
     atom   10 type  1   force =    -0.00009821   -0.00008584    0.00000000
     atom   11 type  1   force =    -0.00001499   -0.00003547    0.00000000
     atom   12 type  1   force =     0.00001452   -0.00004888    0.00000000
     atom   13 type  1   force =     0.00001538    0.00004710    0.00000000
     atom   14 type  1   force =     0.00000166    0.00005739    0.00000000
     atom   15 type  1   force =     0.00000793   -0.00008367    0.00000000
     atom   16 type  1   force =     0.00009698    0.00008245    0.00000000
     atom   17 type  1   force =    -0.00001470    0.00003770    0.00000000
     atom   18 type  1   force =     0.00001499   -0.00003547    0.00000000
     atom   19 type  1   force =     0.00001452    0.00007661    0.00000000
     atom   20 type  1   force =     0.00000000    0.00009095    0.00000000
     atom   21 type  1   force =    -0.00001538    0.00004710    0.00000000
     atom   22 type  1   force =    -0.00001413   -0.00007242    0.00000000
     atom   23 type  1   force =    -0.00000000   -0.00009153    0.00000000
     atom   24 type  1   force =     0.00000000    0.00002108    0.00000000
     atom   25 type  1   force =     0.00001470    0.00003770    0.00000000
     atom   26 type  1   force =     0.00000174   -0.00005877    0.00000000
     atom   27 type  1   force =    -0.00000000   -0.00008423    0.00000000
     atom   28 type  1   force =    -0.00001452   -0.00004888    0.00000000
     atom   29 type  1   force =    -0.00000464    0.00008199    0.00000000
     atom   30 type  1   force =     0.00001413   -0.00007242    0.00000000
     atom   31 type  1   force =    -0.00000793   -0.00008367    0.00000000

     Total force =     0.000423     Total SCF correction =     0.000070
     SCF correction compared to forces is large: reduce conv_thr to get better values

     Computing stress (Cartesian axis) and pressure

     negative rho (up, down):  2.347E-05 0.000E+00
          total   stress  (Ry/bohr**3)                   (kbar)     P=    0.00
   0.00000014  -0.00000000  -0.00000000          0.02     -0.00     -0.00
  -0.00000000  -0.00000007  -0.00000000         -0.00     -0.01     -0.00
   0.00000000   0.00000000  -0.00000001          0.00      0.00     -0.00

     Writing output data file 12al_planar_2x2_vcr.save/

     General routines

     Parallel routines

   This run was terminated on:   0: 1:25  27Nov2020

   JOB DONE.