     Program PWSCF v.6.3MaX starts on 26Nov2020 at  9:18:36

     R & G space division:  proc/nbgrp/npool/nimage =       8
     Waiting for input...
     Reading input from standard input

     Current dimensions of program PWSCF are:
     Max number of different atomic species (ntypx) = 10
     Max number of k-points (npk) =  40000
     Max angular momentum in pseudopotentials (lmaxx) =  3

     Subspace diagonalization in iterative solution of the eigenvalue problem:
     a serial algorithm will be used

     bravais-lattice index     =            4
     lattice parameter (alat)  =      33.6810  a.u.
     unit-cell volume          =   37130.3117 (a.u.)^3
     number of atoms/cell      =           31
     number of atomic types    =            1
     number of electrons       =        93.00
     number of Kohn-Sham states=           56
     kinetic-energy cutoff     =      80.0000  Ry
     charge density cutoff     =     320.0000  Ry
     convergence threshold     =      1.0E-06
     mixing beta               =       0.4000
     number of iterations used =            8  plain     mixing
     Exchange-correlation      = PBE ( 1  4  3  4 0 0)
     nstep                     =          300

     celldm(1)=  33.680967  celldm(2)=   0.000000  celldm(3)=   1.122133
     celldm(4)=   0.000000  celldm(5)=   0.000000  celldm(6)=   0.000000

     crystal axes: (cart. coord. in units of alat)
               a(1) = (   1.000000   0.000000   0.000000 )
               a(2) = (  -0.500000   0.866025   0.000000 )
               a(3) = (   0.000000   0.000000   1.122133 )

     reciprocal axes: (cart. coord. in units 2 pi/alat)
               b(1) = (  1.000000  0.577350  0.000000 )
               b(2) = (  0.000000  1.154701  0.000000 )
               b(3) = (  0.000000  0.000000  0.891160 )

     PseudoPot. # 1 for Al read from file:
     ./Al.upf
     MD5 check sum: 4974d48a734c9d7d1eb6780a1419d19d
     Pseudo is Norm-conserving + core correction, Zval =  3.0
     Generated using ONCVPSP code by D. R. Hamann
     Using radial grid of 1876 points,  6 beta functions with:
                l(1) =   0
                l(2) =   0
                l(3) =   1
                l(4) =   1
                l(5) =   2
                l(6) =   2

     atomic species   valence    mass     pseudopotential
        Al             3.00    29.98200     Al( 1.00)

      4 Sym. Ops. (no inversion) found ( 2 have fractional translation)

   Cartesian axes

     site n.     atom                  positions (alat units)
         1           Al  tau(   1) = (  -0.0000000   0.1443393   0.0000000  )
         2           Al  tau(   2) = (   0.1250015   0.0721696   0.0000000  )
         3           Al  tau(   3) = (  -0.1249997   0.3608472   0.0000000  )
         4           Al  tau(   4) = (   0.0000018   0.2886775   0.0000000  )
         5           Al  tau(   5) = (  -0.2499994   0.5773550   0.0000000  )
         6           Al  tau(   6) = (  -0.1249979   0.5051854   0.0000000  )
         7           Al  tau(   7) = (  -0.3749991   0.7938629   0.0000000  )
         8           Al  tau(   8) = (  -0.2499976   0.7216932   0.0000000  )
         9           Al  tau(   9) = (   0.2500011   0.1443403   0.0000000  )
        10           Al  tau(  10) = (   0.3750027   0.0721706   0.0000000  )
        11           Al  tau(  11) = (   0.1250014   0.3608482   0.0000000  )
        12           Al  tau(  12) = (   0.2500030   0.2886785   0.0000000  )
        13           Al  tau(  13) = (   0.0000017   0.5773560   0.0000000  )
        14           Al  tau(  14) = (   0.1250033   0.5051864   0.0000000  )
        15           Al  tau(  15) = (  -0.1249980   0.7938639   0.0000000  )
        16           Al  tau(  16) = (   0.0000036   0.7216942   0.0000000  )
        17           Al  tau(  17) = (   0.5000023   0.1443413   0.0000000  )
        18           Al  tau(  18) = (   0.6250038   0.0721717   0.0000000  )
        19           Al  tau(  19) = (   0.3750026   0.3608492   0.0000000  )
        20           Al  tau(  20) = (   0.5000041   0.2886795   0.0000000  )
        21           Al  tau(  21) = (   0.2500029   0.5773571   0.0000000  )
        22           Al  tau(  22) = (   0.3750044   0.5051874   0.0000000  )
        23           Al  tau(  23) = (   0.1250032   0.7938649   0.0000000  )
        24           Al  tau(  24) = (   0.2500047   0.7216953   0.0000000  )
        25           Al  tau(  25) = (   0.7500035   0.1443423   0.0000000  )
        26           Al  tau(  26) = (   0.8750050   0.0721727   0.0000000  )
        27           Al  tau(  27) = (   0.6250038   0.3608502   0.0000000  )
        28           Al  tau(  28) = (   0.7500053   0.2886805   0.0000000  )
        29           Al  tau(  29) = (   0.5000041   0.5773581   0.0000000  )
        30           Al  tau(  30) = (   0.6250056   0.5051884   0.0000000  )
        31           Al  tau(  31) = (   0.5000059   0.7216963   0.0000000  )

     number of k points=     1  Methfessel-Paxton smearing, width (Ry)=  0.0500
                       cart. coord. in units 2pi/alat
        k(    1) = (   0.0000000   0.0000000   0.0000000), wk =   2.0000000

     Initial potential from superposition of free atoms

     starting charge   92.92414, renormalised to   93.00000

     negative rho (up, down):  9.278E-05 0.000E+00
     Starting wfcs are  124 randomized atomic wfcs

     Self-consistent Calculation

     iteration #  1     ecut=    80.00 Ry     beta= 0.40
     Davidson diagonalization with overlap
     ethr =  1.00E-02,  avg # of iterations =  2.0

     negative rho (up, down):  5.461E-07 0.000E+00

     total energy              =    -140.64207596 Ry
     Harris-Foulkes estimate   =    -141.23598337 Ry
     estimated scf accuracy    <       1.54859606 Ry

[...]

     End of self-consistent calculation

          k = 0.0000 0.0000 0.0000 (448403 PWs)   bands (ev):

    -9.9529  -9.4482  -9.4333  -9.4328  -9.4261  -9.4257  -9.1459  -8.4050
    -8.4048  -8.3881  -8.3881  -8.3798  -8.3034  -8.2570  -8.2568  -7.5865
    -6.9325  -6.9324  -6.8233  -6.4866  -6.4772  -6.4772  -6.3701  -6.3701
    -5.4640  -4.8435  -4.8434  -4.8370  -4.7358  -4.7355  -4.4781  -4.4681
    -4.4428  -4.4428  -4.1227  -4.1224  -3.9779  -3.4710  -3.4689  -3.4686
    -3.4578  -3.4575  -3.4017  -3.2746  -3.2743  -3.2223  -3.2074  -2.9744
    -2.9653  -2.9652  -2.9390  -2.5199  -2.5196  -2.4499  -2.4489  -2.4314

     the Fermi energy is    -3.0911 ev

!    total energy              =    -140.93611221 Ry
     Harris-Foulkes estimate   =    -140.93611237 Ry
     estimated scf accuracy    <       0.00000019 Ry

     The total energy is the sum of the following terms:

     one-electron contribution =    -502.03539477 Ry
     hartree contribution      =     259.76270906 Ry
     xc contribution           =     -61.33570155 Ry
     ewald contribution        =     162.75328960 Ry
     smearing contrib. (-TS)   =      -0.08101454 Ry

     convergence has been achieved in  17 iterations

[...]

     Forces acting on atoms (cartesian axes, Ry/au):

     atom    1 type  1   force =     0.00317599    0.00113283    0.00000000
     atom    2 type  1   force =    -0.00111508   -0.00064379    0.00000000
     atom    3 type  1   force =     0.00002536    0.00213189    0.00000000
     atom    4 type  1   force =     0.00152814   -0.00517576    0.00000000
     atom    5 type  1   force =     0.00185895   -0.00104398    0.00000000
     atom    6 type  1   force =    -0.00000303   -0.00000175    0.00000000
     atom    7 type  1   force =     0.00256906    0.00218408    0.00000000
     atom    8 type  1   force =    -0.00371827    0.00391129    0.00000000
     atom    9 type  1   force =     0.00112894    0.00065180    0.00000000
     atom   10 type  1   force =     0.00001944   -0.00050752    0.00000000
     atom   11 type  1   force =    -0.00201273    0.00115486    0.00000000
     atom   12 type  1   force =    -0.00042981    0.00027059    0.00000000
     atom   13 type  1   force =    -0.00185122   -0.00106880    0.00000000
     atom   14 type  1   force =     0.00527465    0.00125918    0.00000000
     atom   15 type  1   force =    -0.00000623   -0.00232050    0.00000000
     atom   16 type  1   force =     0.00372781    0.00393839    0.00000000
     atom   17 type  1   force =    -0.00116572    0.00065490    0.00000000
     atom   18 type  1   force =     0.00115752   -0.00064685    0.00000000
     atom   19 type  1   force =    -0.00001570   -0.00133700    0.00000000
     atom   20 type  1   force =     0.00046807    0.00027024    0.00000000
     atom   21 type  1   force =     0.00061319   -0.00328915    0.00000000
     atom   22 type  1   force =     0.00001857    0.00132587    0.00000000
     atom   23 type  1   force =    -0.00254189    0.00217561    0.00000000
     atom   24 type  1   force =     0.01311777    0.00757355    0.00000000
     atom   25 type  1   force =    -0.00316232    0.00108889    0.00000000
     atom   26 type  1   force =    -0.00004131   -0.01516430    0.00000000
     atom   27 type  1   force =     0.00202122    0.00116695    0.00000000
     atom   28 type  1   force =    -0.00158095   -0.00517129    0.00000000
     atom   29 type  1   force =    -0.00063816   -0.00328310    0.00000000
     atom   30 type  1   force =    -0.00526894    0.00121650    0.00000000
     atom   31 type  1   force =    -0.01315332    0.00754638    0.00000000

     Total force =     0.031201     Total SCF correction =     0.000343

     Computing stress (Cartesian axis) and pressure

     negative rho (up, down):  1.372E-04 0.000E+00
          total   stress  (Ry/bohr**3)                   (kbar)     P=   -0.57
  -0.00000579  -0.00000001   0.00000000         -0.85     -0.00      0.00
  -0.00000001  -0.00000578   0.00000000         -0.00     -0.85      0.00
   0.00000000   0.00000000   0.00000000          0.00      0.00      0.00

     BFGS Geometry Optimization

     number of scf cycles    =   1
     number of bfgs steps    =   0

     enthalpy new            =    -140.9361122063 Ry

     new trust radius        =       0.0151643574 bohr
     new conv_thr            =       0.0000010000 Ry

     new unit-cell volume =  37119.57011 a.u.^3 (  5500.55271 Ang^3 )
     density =      0.28059 g/cm^3

CELL_PARAMETERS (alat= 33.68096681)
   0.999855207  -0.000000234   0.000000000
  -0.499927806   0.865900361   0.000000000
   0.000000000   0.000000000   1.122132950

ATOMIC_POSITIONS (angstrom)
Al       0.001679232   2.572815454   0.000000000
Al       2.227013861   1.285766376   0.000000000
Al      -2.227560735   6.431649990   0.000000000
Al       0.000839430   5.141674442   0.000000000
Al      -4.454163543  10.288275566   0.000000000
Al      -2.227543680   9.002717946   0.000000000
Al      -6.681360787  14.148289468   0.000000000
Al      -4.457082376  12.863094272   0.000000000
Al       4.455771760   2.572578087   0.000000000
Al       6.682789760   1.285855626   0.000000000
Al       2.226536539   6.431150191   0.000000000
Al       4.454979101   5.144573261   0.000000000
Al      -0.000950973  10.288279583   0.000000000
Al       2.230424372   9.003402255   0.000000000
Al      -2.227547747  14.145923242   0.000000000
Al       0.002032974  12.863125761   0.000000000
Al       8.909733277   2.572596881   0.000000000
Al      11.138567545   1.285799056   0.000000000
Al       6.682768793   6.429848899   0.000000000
Al       8.910629794   5.144590222   0.000000000
Al       4.455528576  10.287121945   0.000000000
Al       6.682819001   9.003454688   0.000000000
Al       2.226286256  14.148319288   0.000000000
Al       4.462176834  12.865066273   0.000000000
Al      13.363852499   2.572843653   0.000000000
Al      15.593108873   1.278135012   0.000000000
Al      11.139022151   6.431190887   0.000000000
Al      13.364721285   5.141728256   0.000000000
Al       8.910042113  10.287142297   0.000000000
Al      11.135197002   9.003413974   0.000000000
Al       8.903452406  12.865069049   0.000000000

     Writing output data file 31al_planar_2x2_vcr.save/
     NEW-OLD atomic charge density approx. for the potential

     negative rho (up, down):  1.372E-04 0.000E+00
     extrapolated charge   92.97311, renormalised to   93.00000

[...]

     Threshold (ethr) on eigenvalues was too large:
     Diagonalizing with lowered threshold

     Davidson diagonalization with overlap
     ethr =  6.12E-08,  avg # of iterations =  5.0

[...]

     enthalpy old            =    -140.9361122063 Ry
     enthalpy new            =    -140.9371149641 Ry

     CASE: enthalpy_new < enthalpy_old

     WARNING: bfgs curvature condition failed, Theta= 0.853
     new trust radius        =       0.0227432487 bohr
     new conv_thr            =       0.0000010000 Ry

[...]

     iteration #  1     ecut=    80.00 Ry     beta= 0.40
     Davidson diagonalization with overlap
     c_bands:  2 eigenvalues not converged
     ethr =  1.00E-06,  avg # of iterations = 20.0

[...]

     Writing output data file 31al_planar_2x2_vcr.save/
     NEW-OLD atomic charge density approx. for the potential

[...]

     Writing output data file 31al_planar_2x2_vcr.save/
     NEW-OLD atomic charge density approx. for the potential
     Check: negative starting charge=   -0.000121

[...]

     Writing output data file 31al_planar_2x2_vcr.save/
     Check: negative starting charge=   -0.000121
     NEW-OLD atomic charge density approx. for the potential
     Check: negative starting charge=   -0.000133

[...]

     WARNING: bfgs curvature condition failed, Theta= 0.618
     uphill step: resetting bfgs history

[...]

     WARNING: bfgs curvature condition failed, Theta= 0.934
     new trust radius        =       0.2475705099 bohr
     new conv_thr            =       0.0000006233 Ry

[...]

     iteration #  1     ecut=    80.00 Ry     beta= 0.40
     Davidson diagonalization with overlap
     c_bands:  2 eigenvalues not converged
     ethr =  1.00E-06,  avg # of iterations = 20.0

[...]

     CASE: enthalpy_new < enthalpy_old

[...]

     CASE: enthalpy_new > enthalpy_old

[...]

     new trust radius        =       0.0000652117 bohr

     trust_radius < trust_radius_min

     resetting bfgs history

     new conv_thr            =       0.0000001960 Ry

[...]

     new trust radius        =       0.0000324460 bohr

     trust_radius < trust_radius_min

     resetting bfgs history

     new conv_thr            =       0.0000001960 Ry

[...]

     Self-consistent Calculation

[...]

     Threshold (ethr) on eigenvalues was too large:
     Diagonalizing with lowered threshold

     Davidson diagonalization with overlap
     ethr =  1.91E-09,  avg # of iterations = 11.0

[...]

     total energy              =    -141.96921309 Ry
     Harris-Foulkes estimate   =    -141.96921353 Ry
     estimated scf accuracy    <       0.00000184 Ry

     iteration #  4     ecut=    80.00 Ry     beta= 0.40
     Davidson diagonalization with overlap
     ethr =  1.97E-09,  avg # of iterations =  3.0

[...]

     End of self-consistent calculation

          k = 0.0000 0.0000 0.0000 (448403 PWs)   bands (ev):

   -11.4373 -10.8228 -10.7033 -10.5806 -10.4510 -10.4210 -10.3964  -9.1609
    -9.0097  -8.9206  -8.8902  -8.8570  -8.6801  -8.2229  -8.1230  -8.1128
    -8.0463  -8.0038  -7.4473  -6.1959  -5.9541  -5.9054  -5.9003  -5.8636
    -5.7368  -5.5858  -5.5819  -5.5651  -5.3828  -5.2712  -5.2495  -4.7627
    -4.4263  -4.3465  -4.1656  -4.1360  -4.0377  -3.9631  -3.8770  -3.8545
    -3.8367  -3.7740  -3.7588  -3.5922  -2.5269  -2.4422  -2.3515  -2.3396
    -2.3117  -2.2988  -2.1742  -2.0533  -1.9442  -1.8995  -1.6610  -1.6375

     the Fermi energy is    -2.4809 ev

!    total energy              =    -141.96921330 Ry
     Harris-Foulkes estimate   =    -141.96921336 Ry
     estimated scf accuracy    <       0.00000014 Ry

     The total energy is the sum of the following terms:

     one-electron contribution =    -667.74814950 Ry
     hartree contribution      =     342.64618509 Ry
     xc contribution           =     -63.37482747 Ry
     ewald contribution        =     246.55763581 Ry
     smearing contrib. (-TS)   =      -0.05005723 Ry

     convergence has been achieved in   4 iterations

     negative rho (up, down):  2.759E-05 0.000E+00

     Forces acting on atoms (cartesian axes, Ry/au):

     atom    1 type  1   force =    -0.00087290    0.00084183    0.00000000
     atom    2 type  1   force =     0.00056860    0.00032828    0.00000000
     atom    3 type  1   force =    -0.00060364    0.00038528    0.00000000
     atom    4 type  1   force =    -0.00098676   -0.00057021    0.00000000
     atom    5 type  1   force =     0.00003184   -0.00071541    0.00000000
     atom    6 type  1   force =     0.00130370    0.00075269    0.00000000
     atom    7 type  1   force =     0.00029260   -0.00117687    0.00000000
     atom    8 type  1   force =    -0.00098720   -0.00056945    0.00000000
     atom    9 type  1   force =    -0.00328378   -0.00189589    0.00000000
     atom   10 type  1   force =     0.00071340   -0.00069659    0.00000000
     atom   11 type  1   force =     0.00044299   -0.00059345    0.00000000
     atom   12 type  1   force =    -0.00024657    0.00096612    0.00000000
     atom   13 type  1   force =     0.00074366    0.00042935    0.00000000
     atom   14 type  1   force =     0.00102715   -0.00063319    0.00000000
     atom   15 type  1   force =    -0.00029245    0.00068036    0.00000000
     atom   16 type  1   force =    -0.00003478    0.00120613    0.00000000
     atom   17 type  1   force =     0.00039276   -0.00083785    0.00000000
     atom   18 type  1   force =    -0.00092995   -0.00054573    0.00000000
     atom   19 type  1   force =    -0.00052922    0.00075906    0.00000000
     atom   20 type  1   force =    -0.00121431   -0.00070108    0.00000000
     atom   21 type  1   force =     0.00239872    0.00087167    0.00000000
     atom   22 type  1   force =    -0.00093759   -0.00053250    0.00000000
     atom   23 type  1   force =     0.00195425    0.00164152    0.00000000
     atom   24 type  1   force =     0.00082898    0.00047861    0.00000000
     atom   25 type  1   force =    -0.00173422   -0.00060041    0.00000000
     atom   26 type  1   force =     0.00252049    0.00017024    0.00000000
     atom   27 type  1   force =     0.00058482    0.00033765    0.00000000
     atom   28 type  1   force =    -0.00077698   -0.00000660    0.00000000
     atom   29 type  1   force =    -0.00138708   -0.00120168    0.00000000
     atom   30 type  1   force =    -0.00039421   -0.00066958    0.00000000
     atom   31 type  1   force =     0.00140768    0.00209769    0.00000000

     Total force =     0.008455     Total SCF correction =     0.000297

     Computing stress (Cartesian axis) and pressure

     negative rho (up, down):  2.759E-05 0.000E+00
          total   stress  (Ry/bohr**3)                   (kbar)     P=   -0.10
  -0.00000158  -0.00000103  -0.00000000         -0.23     -0.15     -0.00
  -0.00000103  -0.00000039  -0.00000000         -0.15     -0.06     -0.00
   0.00000000   0.00000000  -0.00000003          0.00      0.00     -0.00

     number of scf cycles    = 300
     number of bfgs steps    = 142

     enthalpy old            =    -141.9693288341 Ry
     enthalpy new            =    -141.9692132962 Ry

     CASE: enthalpy_new > enthalpy_old

     new trust radius        =       0.0007775481 bohr
     new conv_thr            =       0.0000001960 Ry

     new unit-cell volume =  27490.28485 a.u.^3 (  4073.63987 Ang^3 )
     density =      0.37887 g/cm^3

CELL_PARAMETERS (alat= 33.68096681)
   0.861274392   0.001426245   0.000000000
  -0.429402031   0.743746135   0.000000000
   0.000000000   0.000000000   1.122132950

ATOMIC_POSITIONS (angstrom)
Al      -0.814049838   1.734365939   0.000000000
Al       1.640789092   0.947309444   0.000000000
Al      -1.679462464   4.551940921   0.000000000
Al       0.983805516   3.574030961   0.000000000
Al      -4.550989218   9.525602524   0.000000000
Al      -1.370176772   8.046259485   0.000000000
Al      -6.558347248  11.683875020   0.000000000
Al      -4.066221973  12.320997894   0.000000000
Al       3.912293107   2.258795313   0.000000000
Al       5.959466191  -0.017087870   0.000000000
Al       0.575337178   6.311075060   0.000000000
Al       2.964935118   5.169623463   0.000000000
Al       0.831644358   9.317513921   0.000000000
Al       2.850498351   7.765955472   0.000000000
Al      -1.900134493  10.598780509   0.000000000
Al       0.497410444  11.841654653   0.000000000
Al       6.676283123   2.388516428   0.000000000
Al       9.306908619   2.433814516   0.000000000
Al       5.406629947   4.587651608   0.000000000
Al       8.075612674   4.662487826   0.000000000
Al       5.162154183   8.764654291   0.000000000
Al       6.761200112   6.843173734   0.000000000
Al       2.518108837  13.344306540   0.000000000
Al       3.209573823  10.690410978   0.000000000
Al      11.992149695   2.355435023   0.000000000
Al      12.678698742  -0.111260284   0.000000000
Al      11.891025556   6.865349894   0.000000000
Al      10.755592963   4.635941184   0.000000000
Al       8.035913947   9.207899089   0.000000000
Al       9.392612803   6.996723442   0.000000000
Al       6.242995792  11.035798320   0.000000000

     Writing output data file 31al_planar_2x2_vcr.save/
     Check: negative starting charge=   -0.000134
     NEW-OLD atomic charge density approx. for the potential
     Check: negative starting charge=   -0.000134

     negative rho (up, down):  2.760E-05 0.000E+00
     extrapolated charge   93.00174, renormalised to   93.00000

     Writing output data file 31al_planar_2x2_vcr.save/

     General routines

     Parallel routines

   This run was terminated on:  12: 4: 9  27Nov2020

   JOB DONE.