     Program PWSCF v.6.3MaX starts on 25Nov2020 at 22:43:17

     R & G space division:  proc/nbgrp/npool/nimage =       8
     Waiting for input...
     Reading input from standard input

     Current dimensions of program PWSCF are:
     Max number of different atomic species (ntypx) = 10
     Max number of k-points (npk) =  40000
     Max angular momentum in pseudopotentials (lmaxx) =  3

     Subspace diagonalization in iterative solution of the eigenvalue problem:
     a serial algorithm will be used

     bravais-lattice index     =            4
     lattice parameter (alat)  =      33.6810  a.u.
     unit-cell volume          =   37130.3117 (a.u.)^3
     number of atoms/cell      =           31
     number of atomic types    =            1
     number of electrons       =        93.00
     number of Kohn-Sham states=           56
     kinetic-energy cutoff     =      80.0000  Ry
     charge density cutoff     =     320.0000  Ry
     convergence threshold     =      1.0E-06
     mixing beta               =       0.4000
     number of iterations used =            8  plain     mixing
     Exchange-correlation      = PBE ( 1  4  3  4 0 0)
     nstep                     =          300

     celldm(1)=  33.680967  celldm(2)=   0.000000  celldm(3)=   1.122133
     celldm(4)=   0.000000  celldm(5)=   0.000000  celldm(6)=   0.000000

     crystal axes: (cart. coord. in units of alat)
               a(1) = (   1.000000   0.000000   0.000000 )
               a(2) = (  -0.500000   0.866025   0.000000 )
               a(3) = (   0.000000   0.000000   1.122133 )

     reciprocal axes: (cart. coord. in units 2 pi/alat)
               b(1) = (  1.000000  0.577350  0.000000 )
               b(2) = (  0.000000  1.154701  0.000000 )
               b(3) = (  0.000000  0.000000  0.891160 )

     PseudoPot. # 1 for Al read from file:
     ./Al.upf
     MD5 check sum: 4974d48a734c9d7d1eb6780a1419d19d
     Pseudo is Norm-conserving + core correction, Zval =  3.0
     Generated using ONCVPSP code by D. R. Hamann
     Using radial grid of 1876 points,  6 beta functions with:
                l(1) =   0
                l(2) =   0
                l(3) =   1
                l(4) =   1
                l(5) =   2
                l(6) =   2

     atomic species   valence    mass     pseudopotential
        Al             3.00    29.98200     Al( 1.00)

      2 Sym. Ops. (no inversion) found

   Cartesian axes

     site n.     atom                  positions (alat units)
         1           Al  tau(   1) = (  -0.0000000   0.1443393   0.0000000  )
         2           Al  tau(   2) = (   0.1250015   0.0721696   0.0000000  )
         3           Al  tau(   3) = (  -0.1249997   0.3608472   0.0000000  )
         4           Al  tau(   4) = (   0.0000018   0.2886775   0.0000000  )
         5           Al  tau(   5) = (  -0.2499994   0.5773550   0.0000000  )
         6           Al  tau(   6) = (  -0.1249979   0.5051854   0.0000000  )
         7           Al  tau(   7) = (  -0.3749991   0.7938629   0.0000000  )
         8           Al  tau(   8) = (  -0.2499976   0.7216932   0.0000000  )
         9           Al  tau(   9) = (   0.2500011   0.1443403   0.0000000  )
        10           Al  tau(  10) = (   0.3750027   0.0721706   0.0000000  )
        11           Al  tau(  11) = (   0.2500030   0.2886785   0.0000000  )
        12           Al  tau(  12) = (   0.0000017   0.5773560   0.0000000  )
        13           Al  tau(  13) = (   0.1250033   0.5051864   0.0000000  )
        14           Al  tau(  14) = (  -0.1249980   0.7938639   0.0000000  )
        15           Al  tau(  15) = (   0.0000036   0.7216942   0.0000000  )
        16           Al  tau(  16) = (   0.5000023   0.1443413   0.0000000  )
        17           Al  tau(  17) = (   0.6250038   0.0721717   0.0000000  )
        18           Al  tau(  18) = (   0.3750026   0.3608492   0.0000000  )
        19           Al  tau(  19) = (   0.5000041   0.2886795   0.0000000  )
        20           Al  tau(  20) = (   0.2500029   0.5773571   0.0000000  )
        21           Al  tau(  21) = (   0.3750044   0.5051874   0.0000000  )
        22           Al  tau(  22) = (   0.1250032   0.7938649   0.0000000  )
        23           Al  tau(  23) = (   0.2500047   0.7216953   0.0000000  )
        24           Al  tau(  24) = (   0.7500035   0.1443423   0.0000000  )
        25           Al  tau(  25) = (   0.8750050   0.0721727   0.0000000  )
        26           Al  tau(  26) = (   0.6250038   0.3608502   0.0000000  )
        27           Al  tau(  27) = (   0.7500053   0.2886805   0.0000000  )
        28           Al  tau(  28) = (   0.5000041   0.5773581   0.0000000  )
        29           Al  tau(  29) = (   0.6250056   0.5051884   0.0000000  )
        30           Al  tau(  30) = (   0.3750044   0.7938660   0.0000000  )
        31           Al  tau(  31) = (   0.5000059   0.7216963   0.0000000  )

     number of k points=     1  Methfessel-Paxton smearing, width (Ry)=  0.0500
                       cart. coord. in units 2pi/alat
        k(    1) = (   0.0000000   0.0000000   0.0000000), wk =   2.0000000

     Initial potential from superposition of free atoms

     starting charge   92.92414, renormalised to   93.00000

     negative rho (up, down):  9.278E-05 0.000E+00
     Starting wfcs are  124 randomized atomic wfcs

     Self-consistent Calculation

     iteration #  1     ecut=    80.00 Ry     beta= 0.40
     Davidson diagonalization with overlap
     ethr =  1.00E-02,  avg # of iterations =  2.0

     total energy              =    -140.64213375 Ry
     Harris-Foulkes estimate   =    -141.23600628 Ry
     estimated scf accuracy    <       1.54867474 Ry

[...]

     End of self-consistent calculation

          k = 0.0000 0.0000 0.0000 (448403 PWs)   bands (ev):

    -9.9529  -9.4486  -9.4330  -9.4329  -9.4258  -9.4257  -9.1459  -8.4047
    -8.4047  -8.3883  -8.3881  -8.3796  -8.3033  -8.2571  -8.2569  -7.5864
    -6.9325  -6.9323  -6.8232  -6.4864  -6.4773  -6.4772  -6.3701  -6.3700
    -5.4640  -4.8435  -4.8433  -4.8369  -4.7357  -4.7356  -4.4781  -4.4681
    -4.4428  -4.4428  -4.1223  -4.1222  -3.9779  -3.4714  -3.4687  -3.4686
    -3.4575  -3.4575  -3.4018  -3.2744  -3.2743  -3.2224  -3.2073  -2.9743
    -2.9654  -2.9653  -2.9388  -2.5198  -2.5197  -2.4495  -2.4488  -2.4313

     the Fermi energy is    -3.0910 ev

!    total energy              =    -140.93611188 Ry
     Harris-Foulkes estimate   =    -140.93611241 Ry
     estimated scf accuracy    <       0.00000065 Ry

     The total energy is the sum of the following terms:

     one-electron contribution =    -502.03629487 Ry
     hartree contribution      =     259.76317794 Ry
     xc contribution           =     -61.33571480 Ry
     ewald contribution        =     162.75371665 Ry
     smearing contrib. (-TS)   =      -0.08099678 Ry

     convergence has been achieved in  17 iterations

     Forces acting on atoms (cartesian axes, Ry/au):

     atom    1 type  1   force =     0.00064340   -0.00332911    0.00000000
     atom    2 type  1   force =    -0.00000660    0.00129291    0.00000000
     atom    3 type  1   force =    -0.00251570    0.00222312    0.00000000
     atom    4 type  1   force =     0.01311387    0.00760044    0.00000000
     atom    5 type  1   force =    -0.00111437    0.00067626    0.00000000
     atom    6 type  1   force =     0.00112235   -0.00065004    0.00000000
     atom    7 type  1   force =     0.00001907   -0.00128565    0.00000000
     atom    8 type  1   force =     0.00044827    0.00023402    0.00000000
     atom    9 type  1   force =    -0.00062860   -0.00331262    0.00000000
     atom   10 type  1   force =    -0.00526663    0.00127203    0.00000000
     atom   11 type  1   force =    -0.01310960    0.00758978    0.00000000
     atom   12 type  1   force =    -0.00315560    0.00111044    0.00000000
     atom   13 type  1   force =    -0.00000285   -0.01512841    0.00000000
     atom   14 type  1   force =     0.00199623    0.00113890    0.00000000
     atom   15 type  1   force =    -0.00156374   -0.00521680    0.00000000
     atom   16 type  1   force =     0.00187099   -0.00108873    0.00000000
     atom   17 type  1   force =    -0.00001275    0.00002016    0.00000000
     atom   18 type  1   force =     0.00253647    0.00220544    0.00000000
     atom   19 type  1   force =    -0.00370181    0.00395271    0.00000000
     atom   20 type  1   force =     0.00316952    0.00110692    0.00000000
     atom   21 type  1   force =    -0.00113093   -0.00065314    0.00000000
     atom   22 type  1   force =     0.00000748    0.00215157    0.00000000
     atom   23 type  1   force =     0.00155331   -0.00521082    0.00000000
     atom   24 type  1   force =    -0.00185933   -0.00108209    0.00000000
     atom   25 type  1   force =     0.00526256    0.00126850    0.00000000
     atom   26 type  1   force =    -0.00000238   -0.00233431    0.00000000
     atom   27 type  1   force =     0.00367964    0.00393679    0.00000000
     atom   28 type  1   force =     0.00111724    0.00067706    0.00000000
     atom   29 type  1   force =    -0.00000403   -0.00051810    0.00000000
     atom   30 type  1   force =    -0.00199606    0.00113267    0.00000000
     atom   31 type  1   force =    -0.00046939    0.00022011    0.00000000

     Total force =     0.031194     Total SCF correction =     0.000557

     Computing stress (Cartesian axis) and pressure

          total   stress  (Ry/bohr**3)                   (kbar)     P=   -0.57
  -0.00000577   0.00000000   0.00000000         -0.85      0.00      0.00
   0.00000000  -0.00000579   0.00000000          0.00     -0.85      0.00
   0.00000000   0.00000000  -0.00000000          0.00      0.00     -0.00

     BFGS Geometry Optimization

     number of scf cycles    =   1
     number of bfgs steps    =   0

     enthalpy new            =    -140.9361118751 Ry

     new trust radius        =       0.0151571849 bohr
     new conv_thr            =       0.0000010000 Ry

     new unit-cell volume =  37119.57740 a.u.^3 (  5500.55379 Ang^3 )
     density =      0.28059 g/cm^3

CELL_PARAMETERS (alat= 33.68096681)
   0.999855644   0.000000110   0.000000000
  -0.499927727   0.865899980   0.000000000
   0.000000000   0.000000000   1.122132950

ATOMIC_POSITIONS (angstrom)
Al       0.000340119   2.570454016   0.000000000
Al       2.227601778   1.286791546   0.000000000
Al      -2.228903971   6.431695941   0.000000000
Al       0.006971222   5.148433095   0.000000000
Al      -4.455735132  10.289181728   0.000000000
Al      -2.226946111   9.002371997   0.000000000
Al      -6.682708039  14.146447918   0.000000000
Al      -4.454875373  12.861143989   0.000000000
Al       4.454844677   2.570481429   0.000000000
Al       6.679996264   1.286799179   0.000000000
Al       4.448273935   5.148446140   0.000000000
Al      -0.001637574  10.289430139   0.000000000
Al       2.227636120   8.994730168   0.000000000
Al      -2.226484347  14.147749433   0.000000000
Al      -0.000762355  12.858278638   0.000000000
Al       8.911344788   2.571676776   0.000000000
Al      11.137953671   1.286155500   0.000000000
Al       6.684124285   6.431723954   0.000000000
[...]

     CASE: enthalpy_new < enthalpy_old

     WARNING: bfgs curvature condition failed, Theta= 0.854
     new trust radius        =       0.0227324952 bohr
     new conv_thr            =       0.0000010000 Ry

[...]

     Writing output data file 11al_planar_2x2_vcr.save/
     NEW-OLD atomic charge density approx. for the potential

[...]

     Writing output data file 11al_planar_2x2_vcr.save/
     NEW-OLD atomic charge density approx. for the potential
     Check: negative starting charge=   -0.000121

[...]

     Writing output data file 11al_planar_2x2_vcr.save/
     Check: negative starting charge=   -0.000121
     NEW-OLD atomic charge density approx. for the potential
     Check: negative starting charge=   -0.000133

[...]

     iteration #  1     ecut=    80.00 Ry     beta= 0.40
     Davidson diagonalization with overlap
     c_bands:  1 eigenvalues not converged
     ethr =  1.00E-06,  avg # of iterations = 20.0

[...]

     WARNING: bfgs curvature condition failed, Theta= 0.612
     uphill step: resetting bfgs history

[...]

     WARNING: bfgs curvature condition failed, Theta= 0.963
     new trust radius        =       0.0157737373 bohr
     new conv_thr            =       0.0000010000 Ry

[...]

     Total force =     0.000502     Total SCF correction =     0.000091
     SCF correction compared to forces is large: reduce conv_thr to get better values

[...]

     Total force =     0.000404     Total SCF correction =     0.000026

[...]

     negative rho (up, down):  1.065E-08 0.000E+00
     extrapolated charge   92.99976, renormalised to   93.00000

[...]

     Writing output data file 11al_planar_2x2_vcr.save/
     Check: negative starting charge=   -0.000132
     NEW-OLD atomic charge density approx. for the potential
     Check: negative starting charge=   -0.000132
     extrapolated charge   93.00007, renormalised to   93.00000

[...]

     Writing output data file 11al_planar_2x2_vcr.save/
     Check: negative starting charge=   -0.000132
     NEW-OLD atomic charge density approx. for the potential
     Check: negative starting charge=   -0.000132
     extrapolated charge   93.00004, renormalised to   93.00000

[...]

     small trust_radius: resetting bfgs history

[...]

     number of scf cycles    = 264
     number of bfgs steps    = 263

     enthalpy old            =    -142.0762610832 Ry
     enthalpy new            =    -142.0762610835 Ry

     CASE: enthalpy_new < enthalpy_old

     Message from routine bfgs:
     history already reset at previous step: stopping
     small trust_radius: resetting bfgs history

     new trust radius        =       0.0000124322 bohr
     new conv_thr            =       0.0000000100 Ry

     new unit-cell volume =  26861.26410 a.u.^3 (  3980.42862 Ang^3 )
     density =      0.38774 g/cm^3

[...]

ATOMIC_POSITIONS (angstrom)
Al       1.454920885   2.762035221   0.000000000
Al       1.236099607   0.000027552   0.000000000
Al      -0.985339870   7.278963690   0.000000000
Al      -0.710350268   4.173753506   0.000000000
Al      -5.086400390   8.719843887   0.000000000
Al      -2.693035525   9.483227212   0.000000000
Al      -7.174161834  10.110700701   0.000000000
Al      -4.761097306  11.278859571   0.000000000
Al       3.636145058   1.282972804   0.000000000
Al       5.440334808  -0.672100204   0.000000000
Al       3.636643182   4.200944205   0.000000000
Al       1.353032056   8.670106972   0.000000000
Al       1.352155463   5.752129629   0.000000000
Al      -0.230696090  13.424250779   0.000000000
Al      -0.451391471  10.625005772   0.000000000
Al       5.974305257   2.674374568   0.000000000
Al      10.075456096   1.232770538   0.000000000
Al       5.699474612   5.778852210   0.000000000
Al       7.935688434   4.523720274   0.000000000
Al       3.534123491   7.190651810   0.000000000
Al       5.838424883   8.558908363   0.000000000
Al       1.837451738  11.628190228   0.000000000
Al       3.753134279   9.952764335   0.000000000
Al      12.524188991   2.523747524   0.000000000
Al      14.637874738   1.190718455   0.000000000
Al      10.324431527   3.663558423   0.000000000
Al      12.540785721   5.226067088   0.000000000
Al       7.952142073   7.225868528   0.000000000
Al      10.151992695   6.086098916   0.000000000
Al       4.250582566  12.796279667   0.000000000
Al       6.281920750  11.352143622   0.000000000

     Writing output data file 11al_planar_2x2_vcr.save/
     Check: negative starting charge=   -0.000132
     NEW-OLD atomic charge density approx. for the potential
     Check: negative starting charge=   -0.000132

[...]

     Threshold (ethr) on eigenvalues was too large:
     Diagonalizing with lowered threshold

     Davidson diagonalization with overlap
     ethr =  4.38E-11,  avg # of iterations =  6.0

[...]

     bfgs converged in 265 scf cycles and 264 bfgs steps
     (criteria: energy <  1.0E-05 Ry, force <  1.0E-04Ry/Bohr, cell <  5.0E-05kbar)

     End of BFGS Geometry Optimization

     Final enthalpy =    -142.0762610834 Ry
Begin final coordinates
     new unit-cell volume =  26861.26410 a.u.^3 (  3980.42862 Ang^3 )
     density =      0.38774 g/cm^3

CELL_PARAMETERS (alat= 33.68096681)
   0.868934662  -0.011387177   0.000000000
  -0.443951703   0.726828001   0.000000000
   0.000000000   0.000000000   1.122132950

ATOMIC_POSITIONS (angstrom)
Al       1.454920885   2.762035221   0.000000000
Al       1.236099607   0.000027552   0.000000000
Al      -0.985339870   7.278963690   0.000000000
Al      -0.710350268   4.173753506   0.000000000
Al      -5.086400390   8.719843887   0.000000000
Al      -2.693035525   9.483227212   0.000000000
Al      -7.174161834  10.110700701   0.000000000
Al      -4.761097306  11.278859571   0.000000000
Al       3.636145058   1.282972804   0.000000000
Al       5.440334808  -0.672100204   0.000000000
Al       3.636643182   4.200944205   0.000000000
Al       1.353032056   8.670106972   0.000000000
Al       1.352155463   5.752129629   0.000000000
Al      -0.230696090  13.424250779   0.000000000
Al      -0.451391471  10.625005772   0.000000000
Al       5.974305257   2.674374568   0.000000000
Al      10.075456096   1.232770538   0.000000000
Al       5.699474612   5.778852210   0.000000000
Al       7.935688434   4.523720274   0.000000000
Al       3.534123491   7.190651810   0.000000000
Al       5.838424883   8.558908363   0.000000000
Al       1.837451738  11.628190228   0.000000000
Al       3.753134279   9.952764335   0.000000000
Al      12.524188991   2.523747524   0.000000000
Al      14.637874738   1.190718455   0.000000000
Al      10.324431527   3.663558423   0.000000000
Al      12.540785721   5.226067088   0.000000000
Al       7.952142073   7.225868528   0.000000000
Al      10.151992695   6.086098916   0.000000000
Al       4.250582566  12.796279667   0.000000000
Al       6.281920750  11.352143622   0.000000000
End final coordinates

     Writing output data file 11al_planar_2x2_vcr.save/

     A final scf calculation at the relaxed structure.
     The G-vectors are recalculated for the final unit cell
     Results may differ from those at the preceding step.

     bravais-lattice index     =            4
     lattice parameter (alat)  =      33.6810  a.u.
     unit-cell volume          =   26861.2641 (a.u.)^3
     number of atoms/cell      =           31
     number of atomic types    =            1
     number of electrons       =        93.00
     number of Kohn-Sham states=           56
     kinetic-energy cutoff     =      80.0000  Ry
     charge density cutoff     =     320.0000  Ry
     convergence threshold     =      1.0E-08
     mixing beta               =       0.4000
     number of iterations used =            8  plain     mixing
     Exchange-correlation      = PBE ( 1  4  3  4 0 0)

     celldm(1)=  33.680967  celldm(2)=   0.000000  celldm(3)=   1.122133
     celldm(4)=   0.000000  celldm(5)=   0.000000  celldm(6)=   0.000000

     crystal axes: (cart. coord. in units of alat)
               a(1) = (   0.868935  -0.011387   0.000000 )
               a(2) = (  -0.443952   0.726828   0.000000 )
               a(3) = (   0.000000   0.000000   1.122133 )

     reciprocal axes: (cart. coord. in units 2 pi/alat)
               b(1) = (  1.160121  0.708610  0.000000 )
               b(2) = (  0.018176  1.386943  0.000000 )
               b(3) = (  0.000000  0.000000  0.891160 )

     PseudoPot. # 1 for Al read from file:
     ./Al.upf
     MD5 check sum: 4974d48a734c9d7d1eb6780a1419d19d
     Pseudo is Norm-conserving + core correction, Zval =  3.0
     Generated using ONCVPSP code by D. R. Hamann
     Using radial grid of 1876 points,  6 beta functions with:
                l(1) =   0
                l(2) =   0
                l(3) =   1
                l(4) =   1
                l(5) =   2
                l(6) =   2

     atomic species   valence    mass     pseudopotential
        Al             3.00    29.98200     Al( 1.00)

      2 Sym. Ops. (no inversion) found

   Cartesian axes

     site n.     atom                  positions (alat units)
         1           Al  tau(   1) = (   0.0816307   0.1549685   0.0000000  )
         2           Al  tau(   2) = (   0.0693534   0.0000015   0.0000000  )
         3           Al  tau(   3) = (  -0.0552841   0.4083983   0.0000000  )
         4           Al  tau(   4) = (  -0.0398554   0.2341753   0.0000000  )
         5           Al  tau(   5) = (  -0.2853809   0.4892412   0.0000000  )
         6           Al  tau(   6) = (  -0.1510972   0.5320721   0.0000000  )
         7           Al  tau(   7) = (  -0.4025182   0.5672775   0.0000000  )
         8           Al  tau(   8) = (  -0.2671292   0.6328190   0.0000000  )
         9           Al  tau(   9) = (   0.2040119   0.0719833   0.0000000  )
        10           Al  tau(  10) = (   0.3052389  -0.0377093   0.0000000  )
        11           Al  tau(  11) = (   0.2040399   0.2357009   0.0000000  )
        12           Al  tau(  12) = (   0.0759141   0.4864506   0.0000000  )
        13           Al  tau(  13) = (   0.0758649   0.3227327   0.0000000  )
        14           Al  tau(  14) = (  -0.0129436   0.7531897   0.0000000  )
        15           Al  tau(  15) = (  -0.0253261   0.5961335   0.0000000  )
        16           Al  tau(  16) = (   0.3351982   0.1500502   0.0000000  )
        17           Al  tau(  17) = (   0.5653001   0.0691666   0.0000000  )
        18           Al  tau(  18) = (   0.3197784   0.3242320   0.0000000  )
        19           Al  tau(  19) = (   0.4452449   0.2538108   0.0000000  )
        20           Al  tau(  20) = (   0.1982878   0.4034434   0.0000000  )
        21           Al  tau(  21) = (   0.3275744   0.4802117   0.0000000  )
        22           Al  tau(  22) = (   0.1030933   0.6524188   0.0000000  )
        23           Al  tau(  23) = (   0.2105758   0.5584162   0.0000000  )
        24           Al  tau(  24) = (   0.7026903   0.1415990   0.0000000  )
        25           Al  tau(  25) = (   0.8212821   0.0668072   0.0000000  )
        26           Al  tau(  26) = (   0.5792692   0.2055500   0.0000000  )
        27           Al  tau(  27) = (   0.7036214   0.2932171   0.0000000  )
        28           Al  tau(  28) = (   0.4461680   0.4054193   0.0000000  )
        29           Al  tau(  29) = (   0.5695943   0.3414706   0.0000000  )
        30           Al  tau(  30) = (   0.2384859   0.7179564   0.0000000  )
        31           Al  tau(  31) = (   0.3524575   0.6369307   0.0000000  )

     number of k points=     1  Methfessel-Paxton smearing, width (Ry)=  0.0500
                       cart. coord. in units 2pi/alat
        k(    1) = (   0.0000000   0.0000000   0.0000000), wk =   2.0000000

     Initial potential from superposition of free atoms

     starting charge   92.92414, renormalised to   93.00000

     negative rho (up, down):  7.285E-05 0.000E+00
     Starting wfcs are  124 randomized atomic wfcs

     Self-consistent Calculation

     iteration #  1     ecut=    80.00 Ry     beta= 0.40
     Davidson diagonalization with overlap
     c_bands:  3 eigenvalues not converged
     ethr =  1.00E-06,  avg # of iterations = 20.0

[...]

     negative rho (up, down):  2.127E-08 0.000E+00

[...]

     total energy              =    -142.07600106 Ry
     Harris-Foulkes estimate   =    -142.07600109 Ry
     estimated scf accuracy    <       0.00000006 Ry

     iteration # 17     ecut=    80.00 Ry     beta= 0.40
     Davidson diagonalization with overlap
     ethr =  6.62E-11,  avg # of iterations =  3.0

     End of self-consistent calculation

          k = 0.0000 0.0000 0.0000 (324517 PWs)   bands (ev):

   -11.5959 -10.9754 -10.8660 -10.7531 -10.6934 -10.5869 -10.1831  -9.2669
    -9.2358  -9.1643  -8.9079  -8.7142  -8.7054  -8.3332  -8.1919  -8.1544
    -8.0864  -7.9058  -7.7282  -6.2426  -6.2044  -6.1200  -6.0617  -5.8996
    -5.7351  -5.6665  -5.4649  -5.3223  -5.3007  -5.1905  -5.1585  -4.8529
    -4.4746  -4.4746  -4.1971  -4.1911  -4.1172  -4.0526  -4.0162  -3.9622
    -3.9536  -3.7343  -3.6933  -3.6682  -2.5566  -2.5446  -2.4641  -2.2952
    -2.1824  -2.1528  -1.9202  -1.8509  -1.7319  -1.7223  -1.6610  -1.5613

     the Fermi energy is    -2.4325 ev

!    total energy              =    -142.07600102 Ry
     Harris-Foulkes estimate   =    -142.07600104 Ry
     estimated scf accuracy    <          4.1E-09 Ry

     The total energy is the sum of the following terms:

     one-electron contribution =    -684.10216314 Ry
     hartree contribution      =     350.79630122 Ry
     xc contribution           =     -63.66156455 Ry
     ewald contribution        =     254.92133074 Ry
     smearing contrib. (-TS)   =      -0.02990529 Ry

     convergence has been achieved in  17 iterations

     Forces acting on atoms (cartesian axes, Ry/au):

     atom    1 type  1   force =    -0.00000181    0.00000191    0.00000000
     atom    2 type  1   force =     0.00000729    0.00000806    0.00000000
     atom    3 type  1   force =    -0.00000242   -0.00000554    0.00000000
     atom    4 type  1   force =     0.00000168    0.00000087    0.00000000
     atom    5 type  1   force =     0.00000381   -0.00000656    0.00000000
     atom    6 type  1   force =     0.00000422    0.00000012    0.00000000
     atom    7 type  1   force =    -0.00000060   -0.00000753    0.00000000
     atom    8 type  1   force =     0.00000877   -0.00000122    0.00000000
     atom    9 type  1   force =     0.00000565   -0.00000897    0.00000000
     atom   10 type  1   force =    -0.00000490   -0.00000885    0.00000000
     atom   11 type  1   force =     0.00000070    0.00000468    0.00000000
     atom   12 type  1   force =    -0.00000129   -0.00000177    0.00000000
     atom   13 type  1   force =    -0.00000274   -0.00001334    0.00000000
     atom   14 type  1   force =    -0.00000051   -0.00000835    0.00000000
     atom   15 type  1   force =     0.00000739   -0.00000204    0.00000000
     atom   16 type  1   force =    -0.00000545   -0.00000714    0.00000000
     atom   17 type  1   force =     0.00000068    0.00000709    0.00000000
     atom   18 type  1   force =     0.00000312    0.00000630    0.00000000
     atom   19 type  1   force =     0.00000084    0.00000200    0.00000000
     atom   20 type  1   force =     0.00000459    0.00001088    0.00000000
     atom   21 type  1   force =    -0.00000437    0.00000425    0.00000000
     atom   22 type  1   force =     0.00000174    0.00000775    0.00000000
     atom   23 type  1   force =    -0.00000768   -0.00000666    0.00000000
     atom   24 type  1   force =     0.00000144    0.00000669    0.00000000
     atom   25 type  1   force =    -0.00000356    0.00000515    0.00000000
     atom   26 type  1   force =    -0.00000096    0.00000600    0.00000000
     atom   27 type  1   force =    -0.00000347    0.00000164    0.00000000
     atom   28 type  1   force =     0.00000186    0.00000353    0.00000000
     atom   29 type  1   force =    -0.00000288    0.00000611    0.00000000
     atom   30 type  1   force =    -0.00000188    0.00000171    0.00000000
     atom   31 type  1   force =    -0.00000924   -0.00000676    0.00000000

     Total force =     0.000042     Total SCF correction =     0.000054
     SCF correction compared to forces is large: reduce conv_thr to get better values

     Computing stress (Cartesian axis) and pressure

          total   stress  (Ry/bohr**3)                   (kbar)     P=    0.00
   0.00000003   0.00000001   0.00000000          0.00      0.00      0.00
   0.00000001   0.00000003   0.00000000          0.00      0.00      0.00
   0.00000000   0.00000000  -0.00000001          0.00      0.00     -0.00

     Writing output data file 11al_planar_2x2_vcr.save/

     General routines

     Parallel routines

   This run was terminated on:  23:46:50  26Nov2020

   JOB DONE.