     Program PWSCF v.6.3MaX starts on 25Nov2020 at 20:12: 7

     R & G space division:  proc/nbgrp/npool/nimage =       8
     Waiting for input...
     Reading input from standard input

     Current dimensions of program PWSCF are:
     Max number of different atomic species (ntypx) = 10
     Max number of k-points (npk) =  40000
     Max angular momentum in pseudopotentials (lmaxx) =  3

     Subspace diagonalization in iterative solution of the eigenvalue problem:
     a serial algorithm will be used

     bravais-lattice index     =            4
     lattice parameter (alat)  =      33.6810  a.u.
     unit-cell volume          =   37130.3117 (a.u.)^3
     number of atoms/cell      =           31
     number of atomic types    =            1
     number of electrons       =        93.00
     number of Kohn-Sham states=           56
     kinetic-energy cutoff     =      80.0000  Ry
     charge density cutoff     =     320.0000  Ry
     convergence threshold     =      1.0E-06
     mixing beta               =       0.4000
     number of iterations used =            8  plain     mixing
     Exchange-correlation      = PBE ( 1  4  3  4 0 0)
     nstep                     =          300

     celldm(1)=  33.680967  celldm(2)=   0.000000  celldm(3)=   1.122133
     celldm(4)=   0.000000  celldm(5)=   0.000000  celldm(6)=   0.000000

     crystal axes: (cart. coord. in units of alat)
               a(1) = (   1.000000   0.000000   0.000000 )
               a(2) = (  -0.500000   0.866025   0.000000 )
               a(3) = (   0.000000   0.000000   1.122133 )

     reciprocal axes: (cart. coord. in units 2 pi/alat)
               b(1) = (  1.000000  0.577350  0.000000 )
               b(2) = (  0.000000  1.154701  0.000000 )
               b(3) = (  0.000000  0.000000  0.891160 )

     PseudoPot. # 1 for Al read from file:
     ./Al.upf
     MD5 check sum: 4974d48a734c9d7d1eb6780a1419d19d
     Pseudo is Norm-conserving + core correction, Zval =  3.0
     Generated using ONCVPSP code by D. R. Hamann
     Using radial grid of 1876 points,  6 beta functions with:
                l(1) =   0
                l(2) =   0
                l(3) =   1
                l(4) =   1
                l(5) =   2
                l(6) =   2

     atomic species   valence    mass     pseudopotential
        Al             3.00    29.98200     Al( 1.00)

      4 Sym. Ops. (no inversion) found ( 2 have fractional translation)

   Cartesian axes

     site n.     atom                  positions (alat units)
         1           Al  tau(   1) = (  -0.0000000   0.1443393   0.0000000  )
         2           Al  tau(   2) = (   0.1250015   0.0721696   0.0000000  )
         3           Al  tau(   3) = (  -0.1249997   0.3608472   0.0000000  )
         4           Al  tau(   4) = (   0.0000018   0.2886775   0.0000000  )
         5           Al  tau(   5) = (  -0.1249979   0.5051854   0.0000000  )
         6           Al  tau(   6) = (  -0.3749991   0.7938629   0.0000000  )
         7           Al  tau(   7) = (  -0.2499976   0.7216932   0.0000000  )
         8           Al  tau(   8) = (   0.2500011   0.1443403   0.0000000  )
         9           Al  tau(   9) = (   0.3750027   0.0721706   0.0000000  )
        10           Al  tau(  10) = (   0.1250014   0.3608482   0.0000000  )
        11           Al  tau(  11) = (   0.2500030   0.2886785   0.0000000  )
        12           Al  tau(  12) = (   0.0000017   0.5773560   0.0000000  )
        13           Al  tau(  13) = (   0.1250033   0.5051864   0.0000000  )
        14           Al  tau(  14) = (  -0.1249980   0.7938639   0.0000000  )
        15           Al  tau(  15) = (   0.0000036   0.7216942   0.0000000  )
        16           Al  tau(  16) = (   0.5000023   0.1443413   0.0000000  )
        17           Al  tau(  17) = (   0.6250038   0.0721717   0.0000000  )
        18           Al  tau(  18) = (   0.3750026   0.3608492   0.0000000  )
        19           Al  tau(  19) = (   0.5000041   0.2886795   0.0000000  )
        20           Al  tau(  20) = (   0.2500029   0.5773571   0.0000000  )
        21           Al  tau(  21) = (   0.3750044   0.5051874   0.0000000  )
        22           Al  tau(  22) = (   0.1250032   0.7938649   0.0000000  )
        23           Al  tau(  23) = (   0.2500047   0.7216953   0.0000000  )
        24           Al  tau(  24) = (   0.7500035   0.1443423   0.0000000  )
        25           Al  tau(  25) = (   0.8750050   0.0721727   0.0000000  )
        26           Al  tau(  26) = (   0.6250038   0.3608502   0.0000000  )
        27           Al  tau(  27) = (   0.7500053   0.2886805   0.0000000  )
        28           Al  tau(  28) = (   0.5000041   0.5773581   0.0000000  )
        29           Al  tau(  29) = (   0.6250056   0.5051884   0.0000000  )
        30           Al  tau(  30) = (   0.3750044   0.7938660   0.0000000  )
        31           Al  tau(  31) = (   0.5000059   0.7216963   0.0000000  )

     number of k points=     1  Methfessel-Paxton smearing, width (Ry)=  0.0500
                       cart. coord. in units 2pi/alat
        k(    1) = (   0.0000000   0.0000000   0.0000000), wk =   2.0000000

     Initial potential from superposition of free atoms

     starting charge   92.92414, renormalised to   93.00000

     negative rho (up, down):  9.278E-05 0.000E+00
     Starting wfcs are  124 randomized atomic wfcs

     Self-consistent Calculation

     iteration #  1     ecut=    80.00 Ry     beta= 0.40
     Davidson diagonalization with overlap
     ethr =  1.00E-02,  avg # of iterations =  2.0

     total energy              =    -140.64104985 Ry
     Harris-Foulkes estimate   =    -141.23598990 Ry
     estimated scf accuracy    <       1.55037127 Ry

[...]

     negative rho (up, down):  7.691E-08 0.000E+00

[...]

     End of self-consistent calculation

          k = 0.0000 0.0000 0.0000 (448403 PWs)   bands (ev):

    -9.9528  -9.4483  -9.4331  -9.4326  -9.4260  -9.4255  -9.1459  -8.4048
    -8.4046  -8.3881  -8.3881  -8.3797  -8.3031  -8.2571  -8.2569  -7.5864
    -6.9324  -6.9323  -6.8232  -6.4865  -6.4772  -6.4770  -6.3702  -6.3700
    -5.4640  -4.8435  -4.8433  -4.8368  -4.7357  -4.7353  -4.4780  -4.4681
    -4.4427  -4.4427  -4.1225  -4.1222  -3.9778  -3.4712  -3.4688  -3.4685
    -3.4576  -3.4573  -3.4018  -3.2745  -3.2741  -3.2224  -3.2075  -2.9742
    -2.9652  -2.9651  -2.9388  -2.5199  -2.5195  -2.4495  -2.4484  -2.4314

     the Fermi energy is    -3.0910 ev

!    total energy              =    -140.93611667 Ry
     Harris-Foulkes estimate   =    -140.93611735 Ry
     estimated scf accuracy    <       0.00000077 Ry

     The total energy is the sum of the following terms:

     one-electron contribution =    -502.03465267 Ry
     hartree contribution      =     259.76170542 Ry
     xc contribution           =     -61.33559310 Ry
     ewald contribution        =     162.75341060 Ry
     smearing contrib. (-TS)   =      -0.08098692 Ry

     convergence has been achieved in  17 iterations

[...]

     Forces acting on atoms (cartesian axes, Ry/au):

     atom    1 type  1   force =     0.00203363    0.00117578    0.00000000
     atom    2 type  1   force =    -0.00159067   -0.00516092    0.00000000
     atom    3 type  1   force =    -0.00060938   -0.00327290    0.00000000
     atom    4 type  1   force =    -0.00529403    0.00124135    0.00000000
     atom    5 type  1   force =    -0.01313417    0.00753305    0.00000000
     atom    6 type  1   force =    -0.00314531    0.00106727    0.00000000
     atom    7 type  1   force =     0.00000000   -0.01514319    0.00000000
     atom    8 type  1   force =     0.00000000    0.00215467    0.00000000
     atom    9 type  1   force =     0.00159067   -0.00516092    0.00000000
     atom   10 type  1   force =     0.00185942   -0.00108462    0.00000000
     atom   11 type  1   force =     0.00000000    0.00001855    0.00000000
     atom   12 type  1   force =     0.00256201    0.00217950    0.00000000
     atom   13 type  1   force =    -0.00371706    0.00396303    0.00000000
     atom   14 type  1   force =     0.00314531    0.00106727    0.00000000
     atom   15 type  1   force =    -0.00110614   -0.00062965    0.00000000
     atom   16 type  1   force =    -0.00203363    0.00117578    0.00000000
     atom   17 type  1   force =    -0.00042904    0.00030206    0.00000000
     atom   18 type  1   force =    -0.00185942   -0.00108462    0.00000000
     atom   19 type  1   force =     0.00529403    0.00124135    0.00000000
     atom   20 type  1   force =     0.00000000   -0.00230596    0.00000000
     atom   21 type  1   force =     0.00371706    0.00396303    0.00000000
     atom   22 type  1   force =     0.00112767    0.00058953    0.00000000
     atom   23 type  1   force =     0.00000000   -0.00052449    0.00000000
     atom   24 type  1   force =     0.00000000   -0.00132460    0.00000000
     atom   25 type  1   force =     0.00042904    0.00030206    0.00000000
     atom   26 type  1   force =     0.00060938   -0.00327290    0.00000000
     atom   27 type  1   force =     0.00000000    0.00131808    0.00000000
     atom   28 type  1   force =    -0.00256201    0.00217950    0.00000000
     atom   29 type  1   force =     0.01313417    0.00753305    0.00000000
     atom   30 type  1   force =    -0.00112767    0.00058953    0.00000000
     atom   31 type  1   force =     0.00110614   -0.00062965    0.00000000

     Total force =     0.031181     Total SCF correction =     0.000682

     Computing stress (Cartesian axis) and pressure

     negative rho (up, down):  8.663E-05 0.000E+00
          total   stress  (Ry/bohr**3)                   (kbar)     P=   -0.57
  -0.00000582   0.00000000   0.00000000         -0.86      0.00      0.00
   0.00000000  -0.00000576   0.00000000          0.00     -0.85      0.00
   0.00000000   0.00000000  -0.00000001          0.00      0.00     -0.00

     BFGS Geometry Optimization

     number of scf cycles    =   1
     number of bfgs steps    =   0

     enthalpy new            =    -140.9361166679 Ry

     new trust radius        =       0.0151431878 bohr
     new conv_thr            =       0.0000010000 Ry

     new unit-cell volume =  37119.56581 a.u.^3 (  5500.55208 Ang^3 )
     density =      0.28059 g/cm^3

CELL_PARAMETERS (alat= 33.68096681)
   0.999854618  -0.000000000   0.000000000
  -0.499927309   0.865900654   0.000000000
   0.000000000   0.000000000   1.122132950

ATOMIC_POSITIONS (angstrom)
Al       0.001075407   2.572839395   0.000000000
Al       2.226761216   1.283377492   0.000000000
Al      -2.227893756   6.428792834   0.000000000
Al      -0.002768977   5.145072174   0.000000000
Al      -2.234487944   9.006708360   0.000000000
Al      -6.684377006  14.147703695   0.000000000
Al      -4.455109397  12.853017575   0.000000000
Al       4.455172414   2.573375524   0.000000000
Al       6.683617464   1.283395686   0.000000000
Al       2.228585490   6.429968846   0.000000000
Al       4.455205094   5.144443386   0.000000000
Al       0.001386482  10.290003137   0.000000000
Al       2.225667650   9.004837649   0.000000000
Al      -2.225875640  14.147721889   0.000000000
Al      -0.000521658  12.860714892   0.000000000
[...]

     negative rho (up, down):  8.664E-05 0.000E+00
     extrapolated charge   92.97310, renormalised to   93.00000

[...]

     enthalpy old            =    -140.9361166679 Ry
     enthalpy new            =    -140.9371177372 Ry

     CASE: enthalpy_new < enthalpy_old

     WARNING: bfgs curvature condition failed, Theta= 0.854
     new trust radius        =       0.0227115097 bohr
     new conv_thr            =       0.0000010000 Ry

[...]

     iteration #  2     ecut=    80.00 Ry     beta= 0.40
     Davidson diagonalization with overlap
     c_bands:  1 eigenvalues not converged
     ethr =  4.66E-07,  avg # of iterations = 20.0

[...]

     Writing output data file 5al_planar_2x2_vcr.save/
     NEW-OLD atomic charge density approx. for the potential

[...]

     Writing output data file 5al_planar_2x2_vcr.save/
     NEW-OLD atomic charge density approx. for the potential
     Check: negative starting charge=   -0.000121

[...]

     Writing output data file 5al_planar_2x2_vcr.save/
     Check: negative starting charge=   -0.000121
     NEW-OLD atomic charge density approx. for the potential
     Check: negative starting charge=   -0.000132

[...]

     WARNING: bfgs curvature condition failed, Theta= 0.665
     uphill step: resetting bfgs history

[...]

     Threshold (ethr) on eigenvalues was too large:
     Diagonalizing with lowered threshold

     Davidson diagonalization with overlap
     ethr =  7.22E-08,  avg # of iterations =  5.0

[...]

     WARNING: bfgs curvature condition failed, Theta= 0.820
     new trust radius        =       0.0422055780 bohr
     new conv_thr            =       0.0000004464 Ry

[...]

     Total force =     0.000967     Total SCF correction =     0.000050

[...]

     Total force =     0.000785     Total SCF correction =     0.000080
     SCF correction compared to forces is large: reduce conv_thr to get better values

[...]

     small trust_radius: resetting bfgs history

[...]

     number of scf cycles    = 205
     number of bfgs steps    = 204

     enthalpy old            =    -141.9736192645 Ry
     enthalpy new            =    -141.9736192653 Ry

     CASE: enthalpy_new < enthalpy_old

     WARNING: bfgs curvature condition failed, Theta= 0.904
     Message from routine bfgs:
     history already reset at previous step: stopping
     small trust_radius: resetting bfgs history

     new trust radius        =       0.0000049932 bohr
     new conv_thr            =       0.0000000100 Ry

     new unit-cell volume =  27359.98313 a.u.^3 (  4054.33115 Ang^3 )
     density =      0.38067 g/cm^3

[...]

ATOMIC_POSITIONS (angstrom)
Al       1.346132182   3.020488844   0.000000000
Al       1.350366006   0.409375638   0.000000000
Al      -2.453415822   6.553383443   0.000000000
Al      -1.059630854   4.331986991   0.000000000
Al      -2.573849671   9.189355735   0.000000000
Al      -6.420181642  11.252275138   0.000000000
Al      -3.798915687  11.917725781   0.000000000
Al       3.798969532   1.318759381   0.000000000
Al       6.247601920   0.409391377   0.000000000
Al       1.234052405   5.759665368   0.000000000
Al       3.798997404   3.882818752   0.000000000
Al      -0.227968296   8.088916326   0.000000000
Al       2.376350340   8.337115304   0.000000000
Al      -1.177678597  11.252290827   0.000000000
Al       1.217959508  10.589279269   0.000000000
Al       6.251806870   3.020520282   0.000000000
Al       8.577502786   1.718728339   0.000000000
Al       6.363913527   5.759681095   0.000000000
Al       8.657625652   4.332018449   0.000000000
Al       3.798996436   6.310419419   0.000000000
Al       5.221671355   8.337131060   0.000000000
Al       2.444178213  12.920042276   0.000000000
Al       3.799024232  10.616958313   0.000000000
Al      11.396909622   1.813894501   0.000000000
Al      14.216345253   1.718744085   0.000000000
Al      10.051381629   6.553430643   0.000000000
Al      11.396937513   4.351485966   0.000000000
Al       7.825961215   8.088947611   0.000000000
Al      10.171871486   9.189403028   0.000000000
Al       5.153841495  12.920058052   0.000000000
Al       6.380088985  10.589311255   0.000000000

     Writing output data file 5al_planar_2x2_vcr.save/
     Check: negative starting charge=   -0.000133
     NEW-OLD atomic charge density approx. for the potential
     Check: negative starting charge=   -0.000133

     negative rho (up, down):  1.939E-05 0.000E+00
     extrapolated charge   93.00001, renormalised to   93.00000

[...]

     Threshold (ethr) on eigenvalues was too large:
     Diagonalizing with lowered threshold

     Davidson diagonalization with overlap
     ethr =  1.27E-11,  avg # of iterations =  5.0

[...]

     bfgs converged in 206 scf cycles and 205 bfgs steps
     (criteria: energy <  1.0E-05 Ry, force <  1.0E-04Ry/Bohr, cell <  5.0E-05kbar)

     End of BFGS Geometry Optimization

     Final enthalpy =    -141.9736192648 Ry
Begin final coordinates
     new unit-cell volume =  27359.98313 a.u.^3 (  4054.33115 Ang^3 )
     density =      0.38067 g/cm^3

CELL_PARAMETERS (alat= 33.68096681)
   0.852585910   0.000000000   0.000000000
  -0.426292955   0.748479156   0.000000000
   0.000000000   0.000000000   1.122132950

ATOMIC_POSITIONS (angstrom)
Al       1.346132182   3.020488844   0.000000000
Al       1.350366006   0.409375638   0.000000000
Al      -2.453415822   6.553383443   0.000000000
Al      -1.059630854   4.331986991   0.000000000
Al      -2.573849671   9.189355735   0.000000000
Al      -6.420181642  11.252275138   0.000000000
Al      -3.798915687  11.917725781   0.000000000
Al       3.798969532   1.318759381   0.000000000
Al       6.247601920   0.409391377   0.000000000
Al       1.234052405   5.759665368   0.000000000
Al       3.798997404   3.882818752   0.000000000
Al      -0.227968296   8.088916326   0.000000000
Al       2.376350340   8.337115304   0.000000000
Al      -1.177678597  11.252290827   0.000000000
Al       1.217959508  10.589279269   0.000000000
Al       6.251806870   3.020520282   0.000000000
Al       8.577502786   1.718728339   0.000000000
Al       6.363913527   5.759681095   0.000000000
Al       8.657625652   4.332018449   0.000000000
Al       3.798996436   6.310419419   0.000000000
Al       5.221671355   8.337131060   0.000000000
Al       2.444178213  12.920042276   0.000000000
Al       3.799024232  10.616958313   0.000000000
Al      11.396909622   1.813894501   0.000000000
Al      14.216345253   1.718744085   0.000000000
Al      10.051381629   6.553430643   0.000000000
Al      11.396937513   4.351485966   0.000000000
Al       7.825961215   8.088947611   0.000000000
Al      10.171871486   9.189403028   0.000000000
Al       5.153841495  12.920058052   0.000000000
Al       6.380088985  10.589311255   0.000000000
End final coordinates

     Writing output data file 5al_planar_2x2_vcr.save/

     A final scf calculation at the relaxed structure.
     The G-vectors are recalculated for the final unit cell
     Results may differ from those at the preceding step.

     bravais-lattice index     =            4
     lattice parameter (alat)  =      33.6810  a.u.
     unit-cell volume          =   27359.9831 (a.u.)^3
     number of atoms/cell      =           31
     number of atomic types    =            1
     number of electrons       =        93.00
     number of Kohn-Sham states=           56
     kinetic-energy cutoff     =      80.0000  Ry
     charge density cutoff     =     320.0000  Ry
     convergence threshold     =      1.0E-08
     mixing beta               =       0.4000
     number of iterations used =            8  plain     mixing
     Exchange-correlation      = PBE ( 1  4  3  4 0 0)

     celldm(1)=  33.680967  celldm(2)=   0.000000  celldm(3)=   1.122133
     celldm(4)=   0.000000  celldm(5)=   0.000000  celldm(6)=   0.000000

     crystal axes: (cart. coord. in units of alat)
               a(1) = (   0.852586   0.000000   0.000000 )
               a(2) = (  -0.426293   0.748479   0.000000 )
               a(3) = (   0.000000   0.000000   1.122133 )

     reciprocal axes: (cart. coord. in units 2 pi/alat)
               b(1) = (  1.172902  0.668021  0.000000 )
               b(2) = ( -0.000000  1.336043  0.000000 )
               b(3) = (  0.000000  0.000000  0.891160 )

     PseudoPot. # 1 for Al read from file:
     ./Al.upf
     MD5 check sum: 4974d48a734c9d7d1eb6780a1419d19d
     Pseudo is Norm-conserving + core correction, Zval =  3.0
     Generated using ONCVPSP code by D. R. Hamann
     Using radial grid of 1876 points,  6 beta functions with:
                l(1) =   0
                l(2) =   0
                l(3) =   1
                l(4) =   1
                l(5) =   2
                l(6) =   2

     atomic species   valence    mass     pseudopotential
        Al             3.00    29.98200     Al( 1.00)

      4 Sym. Ops. (no inversion) found ( 2 have fractional translation)

   Cartesian axes

     site n.     atom                  positions (alat units)
         1           Al  tau(   1) = (   0.0755270   0.1694695   0.0000000  )
         2           Al  tau(   2) = (   0.0757645   0.0229687   0.0000000  )
         3           Al  tau(   3) = (  -0.1376529   0.3676884   0.0000000  )
         4           Al  tau(   4) = (  -0.0594523   0.2430533   0.0000000  )
         5           Al  tau(   5) = (  -0.1444101   0.5155839   0.0000000  )
         6           Al  tau(   6) = (  -0.3602149   0.6313274   0.0000000  )
         7           Al  tau(   7) = (  -0.2131444   0.6686636   0.0000000  )
         8           Al  tau(   8) = (   0.2131474   0.0739912   0.0000000  )
         9           Al  tau(   9) = (   0.3505320   0.0229696   0.0000000  )
        10           Al  tau(  10) = (   0.0692385   0.3231555   0.0000000  )
        11           Al  tau(  11) = (   0.2131490   0.2178519   0.0000000  )
        12           Al  tau(  12) = (  -0.0127905   0.4538420   0.0000000  )
        13           Al  tau(  13) = (   0.1333291   0.4677676   0.0000000  )
        14           Al  tau(  14) = (  -0.0660756   0.6313283   0.0000000  )
        15           Al  tau(  15) = (   0.0683356   0.5941290   0.0000000  )
        16           Al  tau(  16) = (   0.3507679   0.1694713   0.0000000  )
        17           Al  tau(  17) = (   0.4812549   0.0964321   0.0000000  )
        18           Al  tau(  18) = (   0.3570579   0.3231564   0.0000000  )
        19           Al  tau(  19) = (   0.4857504   0.2430550   0.0000000  )
        20           Al  tau(  20) = (   0.2131490   0.3540565   0.0000000  )
        21           Al  tau(  21) = (   0.2929705   0.4677685   0.0000000  )
        22           Al  tau(  22) = (   0.1371346   0.7249003   0.0000000  )
        23           Al  tau(  23) = (   0.2131505   0.5956819   0.0000000  )
        24           Al  tau(  24) = (   0.6394424   0.1017715   0.0000000  )
        25           Al  tau(  25) = (   0.7976315   0.0964330   0.0000000  )
        26           Al  tau(  26) = (   0.5639493   0.3676910   0.0000000  )
        27           Al  tau(  27) = (   0.6394440   0.2441473   0.0000000  )
        28           Al  tau(  28) = (   0.4390884   0.4538437   0.0000000  )
        29           Al  tau(  29) = (   0.5707096   0.5155866   0.0000000  )
        30           Al  tau(  30) = (   0.2891648   0.7249011   0.0000000  )
        31           Al  tau(  31) = (   0.3579654   0.5941308   0.0000000  )

     number of k points=     1  Methfessel-Paxton smearing, width (Ry)=  0.0500
                       cart. coord. in units 2pi/alat
        k(    1) = (   0.0000000   0.0000000   0.0000000), wk =   2.0000000

     Initial potential from superposition of free atoms

     starting charge   92.92414, renormalised to   93.00000

     negative rho (up, down):  7.322E-05 0.000E+00
     Starting wfcs are  124 randomized atomic wfcs

     Self-consistent Calculation

     iteration #  1     ecut=    80.00 Ry     beta= 0.40
     Davidson diagonalization with overlap
     c_bands:  1 eigenvalues not converged
     ethr =  1.00E-06,  avg # of iterations = 20.0

[...]

     total energy              =    -141.97340239 Ry
     Harris-Foulkes estimate   =    -141.97340240 Ry
     estimated scf accuracy    <       0.00000001 Ry

     iteration # 17     ecut=    80.00 Ry     beta= 0.40
     Davidson diagonalization with overlap
     ethr =  1.42E-11,  avg # of iterations =  5.0

[...]

     End of self-consistent calculation

          k = 0.0000 0.0000 0.0000 (330477 PWs)   bands (ev):

   -11.4587 -10.8344 -10.6798 -10.5837 -10.5366 -10.4469 -10.3902  -9.1876
    -9.0475  -8.9941  -8.8826  -8.8725  -8.6676  -8.2541  -8.1418  -8.1406
    -8.1144  -7.9021  -7.6537  -6.0615  -6.0008  -5.9550  -5.9510  -5.9029
    -5.8267  -5.6763  -5.5429  -5.4644  -5.4248  -5.2846  -5.2167  -4.7784
    -4.4730  -4.3408  -4.1366  -4.1324  -4.0305  -3.9588  -3.9368  -3.8757
    -3.8235  -3.7908  -3.7411  -3.7335  -2.5375  -2.4429  -2.3973  -2.3462
    -2.2950  -2.1898  -2.1816  -2.0756  -1.9453  -1.7869  -1.7061  -1.6151

     the Fermi energy is    -2.4736 ev

!    total energy              =    -141.97340237 Ry
     Harris-Foulkes estimate   =    -141.97340238 Ry
     estimated scf accuracy    <          7.7E-09 Ry

     The total energy is the sum of the following terms:

     one-electron contribution =    -670.66731255 Ry
     hartree contribution      =     344.06115622 Ry
     xc contribution           =     -63.39923483 Ry
     ewald contribution        =     248.08172684 Ry
     smearing contrib. (-TS)   =      -0.04973805 Ry

     convergence has been achieved in  17 iterations

     negative rho (up, down):  1.938E-05 0.000E+00

     Forces acting on atoms (cartesian axes, Ry/au):

     atom    1 type  1   force =    -0.00000632    0.00000971    0.00000000
     atom    2 type  1   force =     0.00000143   -0.00000890    0.00000000
     atom    3 type  1   force =     0.00000206    0.00000665    0.00000000
     atom    4 type  1   force =    -0.00000090    0.00000588    0.00000000
     atom    5 type  1   force =    -0.00000815   -0.00000270    0.00000000
     atom    6 type  1   force =     0.00000433   -0.00000110    0.00000000
     atom    7 type  1   force =    -0.00000000    0.00000364    0.00000000
     atom    8 type  1   force =     0.00000000   -0.00000571    0.00000000
     atom    9 type  1   force =    -0.00000143   -0.00000890    0.00000000
     atom   10 type  1   force =    -0.00000171   -0.00000163    0.00000000
     atom   11 type  1   force =    -0.00000000    0.00000614    0.00000000
     atom   12 type  1   force =     0.00000977   -0.00000279    0.00000000
     atom   13 type  1   force =     0.00000192   -0.00000676    0.00000000
     atom   14 type  1   force =    -0.00000433   -0.00000110    0.00000000
     atom   15 type  1   force =    -0.00000351    0.00000302    0.00000000
     atom   16 type  1   force =     0.00000632    0.00000971    0.00000000
     atom   17 type  1   force =     0.00000174    0.00000116    0.00000000
     atom   18 type  1   force =     0.00000171   -0.00000163    0.00000000
     atom   19 type  1   force =     0.00000090    0.00000588    0.00000000
     atom   20 type  1   force =    -0.00000000    0.00000126    0.00000000
     atom   21 type  1   force =    -0.00000192   -0.00000676    0.00000000
     atom   22 type  1   force =    -0.00000453   -0.00000405    0.00000000
     atom   23 type  1   force =     0.00000000   -0.00000474    0.00000000
     atom   24 type  1   force =    -0.00000000    0.00000622    0.00000000
     atom   25 type  1   force =    -0.00000174    0.00000116    0.00000000
     atom   26 type  1   force =    -0.00000206    0.00000665    0.00000000
     atom   27 type  1   force =     0.00000000   -0.00000376    0.00000000
     atom   28 type  1   force =    -0.00000977   -0.00000279    0.00000000
     atom   29 type  1   force =     0.00000815   -0.00000270    0.00000000
     atom   30 type  1   force =     0.00000453   -0.00000405    0.00000000
     atom   31 type  1   force =     0.00000351    0.00000302    0.00000000

     Total force =     0.000037     Total SCF correction =     0.000090
     SCF correction compared to forces is large: reduce conv_thr to get better values

     Computing stress (Cartesian axis) and pressure

     negative rho (up, down):  1.938E-05 0.000E+00
          total   stress  (Ry/bohr**3)                   (kbar)     P=    0.00
   0.00000004  -0.00000000  -0.00000000          0.01     -0.00     -0.00
  -0.00000000   0.00000003   0.00000000         -0.00      0.00      0.00
   0.00000000   0.00000000  -0.00000001          0.00      0.00     -0.00

     Writing output data file 5al_planar_2x2_vcr.save/

     General routines

     Parallel routines

      46h

   This run was terminated on:  15:59: 1  26Nov2020

   JOB DONE.