     Program PWSCF v.6.3MaX starts on 25Nov2020 at 13: 1:16

     R & G space division:  proc/nbgrp/npool/nimage =       8
     Waiting for input...
     Reading input from standard input

     Current dimensions of program PWSCF are:
     Max number of different atomic species (ntypx) = 10
     Max number of k-points (npk) =  40000
     Max angular momentum in pseudopotentials (lmaxx) =  3

     Subspace diagonalization in iterative solution of the eigenvalue problem:
     a serial algorithm will be used

     bravais-lattice index     =            4
     lattice parameter (alat)  =      25.2607  a.u.
     unit-cell volume          =   20885.8003 (a.u.)^3
     number of atoms/cell      =           17
     number of atomic types    =            1
     number of electrons       =        51.00
     number of Kohn-Sham states=           31
     kinetic-energy cutoff     =      80.0000  Ry
     charge density cutoff     =     320.0000  Ry
     convergence threshold     =      1.0E-06
     mixing beta               =       0.4000
     number of iterations used =            8  plain     mixing
     Exchange-correlation      = PBE ( 1  4  3  4 0 0)
     nstep                     =          300

     celldm(1)=  25.260725  celldm(2)=   0.000000  celldm(3)=   1.496177
     celldm(4)=   0.000000  celldm(5)=   0.000000  celldm(6)=   0.000000

     crystal axes: (cart. coord. in units of alat)
               a(1) = (   1.000000   0.000000   0.000000 )
               a(2) = (  -0.500000   0.866025   0.000000 )
               a(3) = (   0.000000   0.000000   1.496177 )

     reciprocal axes: (cart. coord. in units 2 pi/alat)
               b(1) = (  1.000000  0.577350  0.000000 )
               b(2) = (  0.000000  1.154701  0.000000 )
               b(3) = (  0.000000  0.000000  0.668370 )

     PseudoPot. # 1 for Al read from file:
     ./Al.upf
     MD5 check sum: 4974d48a734c9d7d1eb6780a1419d19d
     Pseudo is Norm-conserving + core correction, Zval =  3.0
     Generated using ONCVPSP code by D. R. Hamann
     Using radial grid of 1876 points,  6 beta functions with:
                l(1) =   0
                l(2) =   0
                l(3) =   1
                l(4) =   1
                l(5) =   2
                l(6) =   2

     atomic species   valence    mass     pseudopotential
        Al             3.00    29.98200     Al( 1.00)

      2 Sym. Ops. (no inversion) found

   Cartesian axes

     site n.     atom                  positions (alat units)
         1           Al  tau(   1) = (   0.0000000   0.1924524   0.0000000  )
         2           Al  tau(   2) = (   0.1666687   0.0962261   0.0000000  )
         3           Al  tau(   3) = (   0.3333348   0.1924537   0.0000000  )
         4           Al  tau(   4) = (  -0.1666663   0.4811295   0.0000000  )
         5           Al  tau(   5) = (   0.0000024   0.3849033   0.0000000  )
         6           Al  tau(   6) = (   0.1666686   0.4811309   0.0000000  )
         7           Al  tau(   7) = (   0.3333373   0.3849047   0.0000000  )
         8           Al  tau(   8) = (  -0.3333326   0.7698067   0.0000000  )
         9           Al  tau(   9) = (  -0.1666639   0.6735805   0.0000000  )
        10           Al  tau(  10) = (   0.0000023   0.7698081   0.0000000  )
        11           Al  tau(  11) = (   0.1666710   0.6735818   0.0000000  )
        12           Al  tau(  12) = (   0.6666697   0.1924551   0.0000000  )
        13           Al  tau(  13) = (   0.8333384   0.0962289   0.0000000  )
        14           Al  tau(  14) = (   0.5000035   0.4811323   0.0000000  )
        15           Al  tau(  15) = (   0.6666722   0.3849060   0.0000000  )
        16           Al  tau(  16) = (   0.3333372   0.7698094   0.0000000  )
        17           Al  tau(  17) = (   0.5000059   0.6735832   0.0000000  )

     number of k points=     1  Methfessel-Paxton smearing, width (Ry)=  0.0500
                       cart. coord. in units 2pi/alat
        k(    1) = (   0.0000000   0.0000000   0.0000000), wk =   2.0000000

     Initial potential from superposition of free atoms

     starting charge   50.95840, renormalised to   51.00000

     negative rho (up, down):  5.196E-05 0.000E+00
     Starting wfcs are   68 randomized atomic wfcs

     Self-consistent Calculation

     iteration #  1     ecut=    80.00 Ry     beta= 0.40
     Davidson diagonalization with overlap
     ethr =  1.00E-02,  avg # of iterations =  2.0

     total energy              =     -77.03444616 Ry
     Harris-Foulkes estimate   =     -77.31745546 Ry
     estimated scf accuracy    <       0.79316356 Ry

[...]

     End of self-consistent calculation

          k = 0.0000 0.0000 0.0000 (252395 PWs)   bands (ev):

    -9.9964  -9.1542  -9.0979  -9.0979  -9.0598  -9.0597  -8.4088  -7.5382
    -7.4673  -7.4673  -6.7264  -5.8849  -5.8791  -5.8791  -5.6093  -5.6092
    -4.7520  -4.7519  -4.0025  -3.5339  -3.3089  -3.2898  -3.2898  -3.2355
    -3.1475  -3.1133  -3.1133  -3.0990  -3.0989  -2.7511  -2.7511

     the Fermi energy is    -3.1135 ev

!    total energy              =     -77.16211993 Ry
     Harris-Foulkes estimate   =     -77.16212023 Ry
     estimated scf accuracy    <       0.00000033 Ry

     The total energy is the sum of the following terms:

     one-electron contribution =    -269.13863869 Ry
     hartree contribution      =     139.26280360 Ry
     xc contribution           =     -33.51700882 Ry
     ewald contribution        =      86.35193765 Ry
     smearing contrib. (-TS)   =      -0.12121368 Ry

     convergence has been achieved in  16 iterations

     Forces acting on atoms (cartesian axes, Ry/au):

     atom    1 type  1   force =     0.00000115   -0.00950132    0.00000000
     atom    2 type  1   force =    -0.00400405    0.00308253    0.00000000
     atom    3 type  1   force =     0.01925882   -0.01116586    0.00000000
     atom    4 type  1   force =    -0.00821259    0.00476580    0.00000000
     atom    5 type  1   force =    -0.00000581    0.00000138    0.00000000
     atom    6 type  1   force =     0.00822086    0.00475845    0.00000000
     atom    7 type  1   force =    -0.00467828    0.00195422    0.00000000
     atom    8 type  1   force =    -0.00057800   -0.00036263    0.00000000
     atom    9 type  1   force =     0.00068031   -0.00499862    0.00000000
     atom   10 type  1   force =    -0.00000877    0.02226185    0.00000000
     atom   11 type  1   force =    -0.00069102   -0.00501256    0.00000000
     atom   12 type  1   force =    -0.01925887   -0.01116056    0.00000000
     atom   13 type  1   force =     0.00401215    0.00306951    0.00000000
     atom   14 type  1   force =     0.00001359    0.00071652    0.00000000
     atom   15 type  1   force =     0.00465493    0.00196162    0.00000000
     atom   16 type  1   force =     0.00061433   -0.00035904    0.00000000
     atom   17 type  1   force =    -0.00001878   -0.00001129    0.00000000

     Total force =     0.043728     Total SCF correction =     0.000425

     Computing stress (Cartesian axis) and pressure

          total   stress  (Ry/bohr**3)                   (kbar)     P=   -0.80
  -0.00000822   0.00000001   0.00000000         -1.21      0.00      0.00
   0.00000001  -0.00000820   0.00000000          0.00     -1.21      0.00
   0.00000000   0.00000000   0.00000001          0.00      0.00      0.00

     BFGS Geometry Optimization

     number of scf cycles    =   1
     number of bfgs steps    =   0

     enthalpy new            =     -77.1621199342 Ry

     new trust radius        =       0.0222618539 bohr
     new conv_thr            =       0.0000010000 Ry

     new unit-cell volume =  20877.23103 a.u.^3 (  3093.68642 Ang^3 )
     density =      0.27358 g/cm^3

CELL_PARAMETERS (alat= 25.26072511)
   0.999794623   0.000000173   0.000000000
  -0.499897162   0.865847818   0.000000000
   0.000000000   0.000000000   1.496177267

ATOMIC_POSITIONS (angstrom)
Al       0.000001637   2.567033742   0.000000000
Al       2.225350984   1.287661043   0.000000000
Al       4.465094769   2.566172055   0.000000000
Al      -2.231781579   6.432653841   0.000000000
Al       0.000029909   5.144102719   0.000000000
Al       2.231818514   6.432668915   0.000000000
Al       4.452463527   5.145154863   0.000000000
Al      -4.455178778  10.288012361   0.000000000
Al      -2.227043504   8.999529186   0.000000000
Al       0.000028062  10.300001230   0.000000000
Al       2.227136643   8.999540770   0.000000000
Al       8.899621944   2.566193817   0.000000000
Al      11.139403451   1.287692081   0.000000000
Al       6.682381983   6.430549418   0.000000000
Al       8.912307109   5.145177743   0.000000000
Al       4.455263396  10.288052187   0.000000000
Al       6.682397977   9.002205750   0.000000000

     Writing output data file 4al_planar_2x2_vcr.save/
     NEW-OLD atomic charge density approx. for the potential

     negative rho (up, down):  3.809E-07 0.000E+00
     extrapolated charge   50.97908, renormalised to   51.00000

[...]

     negative rho (up, down):  1.934E-07 0.000E+00

[...]

     enthalpy old            =     -77.1621199342 Ry
     enthalpy new            =     -77.1640605534 Ry

     CASE: enthalpy_new < enthalpy_old

     WARNING: bfgs curvature condition failed, Theta= 0.837
     new trust radius        =       0.0333859367 bohr
     new conv_thr            =       0.0000010000 Ry

[...]

     iteration # 11     ecut=    80.00 Ry     beta= 0.40
     Davidson diagonalization with overlap
     c_bands:  1 eigenvalues not converged
     ethr =  5.69E-09,  avg # of iterations = 20.0

[...]

     CASE: enthalpy_new > enthalpy_old

[...]

     Threshold (ethr) on eigenvalues was too large:
     Diagonalizing with lowered threshold

     Davidson diagonalization with overlap
     ethr =  3.92E-08,  avg # of iterations =  6.0

[...]

     Total force =     0.000761     Total SCF correction =     0.000079
     SCF correction compared to forces is large: reduce conv_thr to get better values

[...]

     Writing output data file 4al_planar_2x2_vcr.save/
     NEW-OLD atomic charge density approx. for the potential
     extrapolated charge   51.00015, renormalised to   51.00000

[...]

     Total force =     0.000342     Total SCF correction =     0.000025

[...]

     WARNING: bfgs curvature condition failed, Theta= 0.932
     new trust radius        =       0.0003386872 bohr
     new conv_thr            =       0.0000000100 Ry

[...]

     negative rho (up, down):  1.852E-08 0.000E+00
     extrapolated charge   50.99999, renormalised to   51.00000

[...]

     CASE: enthalpy_new > enthalpy_old

     new trust radius        =       0.0000691758 bohr

     trust_radius < trust_radius_min

     resetting bfgs history

     new conv_thr            =       0.0000000100 Ry

[...]

     Writing output data file 4al_planar_2x2_vcr.save/
     NEW-OLD atomic charge density approx. for the potential
     extrapolated charge   50.99999, renormalised to   51.00000

[...]

     number of scf cycles    = 223
     number of bfgs steps    = 217

     enthalpy old            =     -78.0594260755 Ry
     enthalpy new            =     -78.0594260766 Ry

     CASE: enthalpy_new < enthalpy_old

     WARNING: bfgs curvature condition failed, Theta= 0.942
     Message from routine bfgs:
     history already reset at previous step: stopping
     small trust_radius: resetting bfgs history

     new trust radius        =       0.0000050482 bohr
     new conv_thr            =       0.0000000100 Ry

     new unit-cell volume =  15095.26962 a.u.^3 (  2236.88814 Ang^3 )
     density =      0.37837 g/cm^3

[...]

ATOMIC_POSITIONS (angstrom)
Al       0.031570393   2.640831321   0.000000000
Al       0.876934246   0.031690613   0.000000000
Al       2.737936729   2.197197710   0.000000000
Al      -2.810596416   6.545871277   0.000000000
Al      -0.549424216   5.398410208   0.000000000
Al       1.470584045   7.754183986   0.000000000
Al       1.924736974   4.735113762   0.000000000
Al      -4.829990525  11.204478703   0.000000000
Al      -3.685864564   8.943695517   0.000000000
Al      -1.816499830  10.955285874   0.000000000
Al      -1.003399179   8.417732866   0.000000000
Al       4.229726384   0.073625846   0.000000000
Al       7.580849438   0.115591503   0.000000000
Al       4.606992745   4.209459809   0.000000000
Al       5.751410396   1.949021612   0.000000000
Al       0.889593208  10.511983509   0.000000000
Al       3.732032357   6.607393045   0.000000000

     Writing output data file 4al_planar_2x2_vcr.save/
     NEW-OLD atomic charge density approx. for the potential

[...]

     Threshold (ethr) on eigenvalues was too large:
     Diagonalizing with lowered threshold

     Davidson diagonalization with overlap
     ethr =  1.92E-11,  avg # of iterations =  1.0

[...]

     bfgs converged in 224 scf cycles and 218 bfgs steps
     (criteria: energy <  1.0E-05 Ry, force <  1.0E-04Ry/Bohr, cell <  5.0E-05kbar)

     End of BFGS Geometry Optimization

     Final enthalpy =     -78.0594260768 Ry
Begin final coordinates
     new unit-cell volume =  15095.26962 a.u.^3 (  2236.88814 Ang^3 )
     density =      0.37837 g/cm^3

CELL_PARAMETERS (alat= 25.26072511)
   0.763031014  -0.206538736   0.000000000
  -0.563828086   0.972928451   0.000000000
   0.000000000   0.000000000   1.496177267

ATOMIC_POSITIONS (angstrom)
Al       0.031570393   2.640831321   0.000000000
Al       0.876934246   0.031690613   0.000000000
Al       2.737936729   2.197197710   0.000000000
Al      -2.810596416   6.545871277   0.000000000
Al      -0.549424216   5.398410208   0.000000000
Al       1.470584045   7.754183986   0.000000000
Al       1.924736974   4.735113762   0.000000000
Al      -4.829990525  11.204478703   0.000000000
Al      -3.685864564   8.943695517   0.000000000
Al      -1.816499830  10.955285874   0.000000000
Al      -1.003399179   8.417732866   0.000000000
Al       4.229726384   0.073625846   0.000000000
Al       7.580849438   0.115591503   0.000000000
Al       4.606992745   4.209459809   0.000000000
Al       5.751410396   1.949021612   0.000000000
Al       0.889593208  10.511983509   0.000000000
Al       3.732032357   6.607393045   0.000000000
End final coordinates

     Writing output data file 4al_planar_2x2_vcr.save/

     A final scf calculation at the relaxed structure.
     The G-vectors are recalculated for the final unit cell
     Results may differ from those at the preceding step.

     bravais-lattice index     =            4
     lattice parameter (alat)  =      25.2607  a.u.
     unit-cell volume          =   15095.2696 (a.u.)^3
     number of atoms/cell      =           17
     number of atomic types    =            1
     number of electrons       =        51.00
     number of Kohn-Sham states=           31
     kinetic-energy cutoff     =      80.0000  Ry
     charge density cutoff     =     320.0000  Ry
     convergence threshold     =      1.0E-08
     mixing beta               =       0.4000
     number of iterations used =            8  plain     mixing
     Exchange-correlation      = PBE ( 1  4  3  4 0 0)

     celldm(1)=  25.260725  celldm(2)=   0.000000  celldm(3)=   1.496177
     celldm(4)=   0.000000  celldm(5)=   0.000000  celldm(6)=   0.000000

     crystal axes: (cart. coord. in units of alat)
               a(1) = (   0.763031  -0.206539   0.000000 )
               a(2) = (  -0.563828   0.972928   0.000000 )
               a(3) = (   0.000000   0.000000   1.496177 )

     reciprocal axes: (cart. coord. in units 2 pi/alat)
               b(1) = (  1.554392  0.900796  0.000000 )
               b(2) = (  0.329975  1.219051  0.000000 )
               b(3) = (  0.000000  0.000000  0.668370 )

     PseudoPot. # 1 for Al read from file:
     ./Al.upf
     MD5 check sum: 4974d48a734c9d7d1eb6780a1419d19d
     Pseudo is Norm-conserving + core correction, Zval =  3.0
     Generated using ONCVPSP code by D. R. Hamann
     Using radial grid of 1876 points,  6 beta functions with:
                l(1) =   0
                l(2) =   0
                l(3) =   1
                l(4) =   1
                l(5) =   2
                l(6) =   2

     atomic species   valence    mass     pseudopotential
        Al             3.00    29.98200     Al( 1.00)

      2 Sym. Ops. (no inversion) found

   Cartesian axes

     site n.     atom                  positions (alat units)
         1           Al  tau(   1) = (   0.0023617   0.1975576   0.0000000  )
         2           Al  tau(   2) = (   0.0656025   0.0023707   0.0000000  )
         3           Al  tau(   3) = (   0.2048219   0.1643699   0.0000000  )
         4           Al  tau(   4) = (  -0.2102575   0.4896892   0.0000000  )
         5           Al  tau(   5) = (  -0.0411018   0.4038489   0.0000000  )
         6           Al  tau(   6) = (   0.1100127   0.5800817   0.0000000  )
         7           Al  tau(   7) = (   0.1439874   0.3542285   0.0000000  )
         8           Al  tau(   8) = (  -0.3613261   0.8381943   0.0000000  )
         9           Al  tau(   9) = (  -0.2757353   0.6690677   0.0000000  )
        10           Al  tau(  10) = (  -0.1358903   0.8195525   0.0000000  )
        11           Al  tau(  11) = (  -0.0750632   0.6297210   0.0000000  )
        12           Al  tau(  12) = (   0.3164210   0.0055079   0.0000000  )
        13           Al  tau(  13) = (   0.5671147   0.0086473   0.0000000  )
        14           Al  tau(  14) = (   0.3446439   0.3149049   0.0000000  )
        15           Al  tau(  15) = (   0.4302565   0.1458041   0.0000000  )
        16           Al  tau(  16) = (   0.0665495   0.7863895   0.0000000  )
        17           Al  tau(  17) = (   0.2791891   0.4942916   0.0000000  )

     number of k points=     1  Methfessel-Paxton smearing, width (Ry)=  0.0500
                       cart. coord. in units 2pi/alat
        k(    1) = (   0.0000000   0.0000000   0.0000000), wk =   2.0000000

     Initial potential from superposition of free atoms

     starting charge   50.95840, renormalised to   51.00000

     negative rho (up, down):  4.033E-05 0.000E+00
     Starting wfcs are   68 randomized atomic wfcs

     Self-consistent Calculation

     iteration #  1     ecut=    80.00 Ry     beta= 0.40
     Davidson diagonalization with overlap
     c_bands:  1 eigenvalues not converged
     ethr =  1.00E-06,  avg # of iterations = 20.0

[...]

     negative rho (up, down):  1.297E-08 0.000E+00

[...]

     total energy              =     -78.05931604 Ry
     Harris-Foulkes estimate   =     -78.05931605 Ry
     estimated scf accuracy    <       0.00000003 Ry

     iteration # 16     ecut=    80.00 Ry     beta= 0.40
     Davidson diagonalization with overlap
     ethr =  5.74E-11,  avg # of iterations =  2.0

     End of self-consistent calculation

          k = 0.0000 0.0000 0.0000 (182431 PWs)   bands (ev):

   -11.2073  -9.9747  -9.9326  -9.8261  -9.7395  -8.5718  -8.5419  -8.5032
    -8.3700  -6.2255  -6.1818  -6.0106  -5.8829  -5.2044  -5.0576  -4.9612
    -4.8407  -4.7430  -4.6261  -4.3620  -4.1934  -4.1544  -3.4194  -3.4117
    -3.3407  -3.2479  -2.1194  -2.1016  -2.0942  -1.9540  -1.2651

     the Fermi energy is    -2.9709 ev

!    total energy              =     -78.05931603 Ry
     Harris-Foulkes estimate   =     -78.05931604 Ry
     estimated scf accuracy    <          1.4E-09 Ry

     The total energy is the sum of the following terms:

     one-electron contribution =    -366.22991559 Ry
     hartree contribution      =     188.17051394 Ry
     xc contribution           =     -34.77971294 Ry
     ewald contribution        =     134.76160401 Ry
     smearing contrib. (-TS)   =       0.01819454 Ry

     convergence has been achieved in  16 iterations

     Forces acting on atoms (cartesian axes, Ry/au):

     atom    1 type  1   force =     0.00000424   -0.00000258    0.00000000
     atom    2 type  1   force =    -0.00000017   -0.00000655    0.00000000
     atom    3 type  1   force =    -0.00000542    0.00000722    0.00000000
     atom    4 type  1   force =     0.00000405    0.00000410    0.00000000
     atom    5 type  1   force =    -0.00000422    0.00000574    0.00000000
     atom    6 type  1   force =     0.00000269   -0.00000267    0.00000000
     atom    7 type  1   force =     0.00000107   -0.00001031    0.00000000
     atom    8 type  1   force =    -0.00001116   -0.00000004    0.00000000
     atom    9 type  1   force =     0.00000796    0.00000148    0.00000000
     atom   10 type  1   force =     0.00000080    0.00000010    0.00000000
     atom   11 type  1   force =    -0.00000588    0.00000557    0.00000000
     atom   12 type  1   force =     0.00000338    0.00000132    0.00000000
     atom   13 type  1   force =     0.00000735   -0.00000370    0.00000000
     atom   14 type  1   force =    -0.00000341   -0.00000058    0.00000000
     atom   15 type  1   force =    -0.00000115   -0.00000135    0.00000000
     atom   16 type  1   force =    -0.00000289    0.00000263    0.00000000
     atom   17 type  1   force =     0.00000275   -0.00000037    0.00000000

     Total force =     0.000027     Total SCF correction =     0.000030
     SCF correction compared to forces is large: reduce conv_thr to get better values

     Computing stress (Cartesian axis) and pressure

          total   stress  (Ry/bohr**3)                   (kbar)     P=    0.00
   0.00000002   0.00000000   0.00000000          0.00      0.00      0.00
   0.00000000   0.00000002   0.00000000          0.00      0.00      0.00
   0.00000000   0.00000000  -0.00000001          0.00      0.00     -0.00

     Writing output data file 4al_planar_2x2_vcr.save/

     General routines

     Parallel routines

      12h

   This run was terminated on:  19:13:54  25Nov2020

   JOB DONE.