     Program PWSCF v.6.3MaX starts on 25Nov2020 at 22: 8: 3

     R & G space division:  proc/nbgrp/npool/nimage =       8
     Waiting for input...
     Reading input from standard input

     Current dimensions of program PWSCF are:
     Max number of different atomic species (ntypx) = 10
     Max number of k-points (npk) =  40000
     Max angular momentum in pseudopotentials (lmaxx) =  3

     Subspace diagonalization in iterative solution of the eigenvalue problem:
     a serial algorithm will be used

     bravais-lattice index     =            4
     lattice parameter (alat)  =      33.6810  a.u.
     unit-cell volume          =   37130.3117 (a.u.)^3
     number of atoms/cell      =           31
     number of atomic types    =            1
     number of electrons       =        93.00
     number of Kohn-Sham states=           56
     kinetic-energy cutoff     =      80.0000  Ry
     charge density cutoff     =     320.0000  Ry
     convergence threshold     =      1.0E-06
     mixing beta               =       0.4000
     number of iterations used =            8  plain     mixing
     Exchange-correlation      = PBE ( 1  4  3  4 0 0)
     nstep                     =          300

     celldm(1)=  33.680967  celldm(2)=   0.000000  celldm(3)=   1.122133
     celldm(4)=   0.000000  celldm(5)=   0.000000  celldm(6)=   0.000000

     crystal axes: (cart. coord. in units of alat)
               a(1) = (   1.000000   0.000000   0.000000 )
               a(2) = (  -0.500000   0.866025   0.000000 )
               a(3) = (   0.000000   0.000000   1.122133 )

     reciprocal axes: (cart. coord. in units 2 pi/alat)
               b(1) = (  1.000000  0.577350  0.000000 )
               b(2) = (  0.000000  1.154701  0.000000 )
               b(3) = (  0.000000  0.000000  0.891160 )

     PseudoPot. # 1 for Al read from file:
     ./Al.upf
     MD5 check sum: 4974d48a734c9d7d1eb6780a1419d19d
     Pseudo is Norm-conserving + core correction, Zval =  3.0
     Generated using ONCVPSP code by D. R. Hamann
     Using radial grid of 1876 points,  6 beta functions with:
                l(1) =   0
                l(2) =   0
                l(3) =   1
                l(4) =   1
                l(5) =   2
                l(6) =   2

     atomic species   valence    mass     pseudopotential
        Al             3.00    29.98200     Al( 1.00)

      2 Sym. Ops. (no inversion) found

   Cartesian axes

     site n.     atom                  positions (alat units)
         1           Al  tau(   1) = (  -0.0000000   0.1443393   0.0000000  )
         2           Al  tau(   2) = (   0.1250015   0.0721696   0.0000000  )
         3           Al  tau(   3) = (  -0.1249997   0.3608472   0.0000000  )
         4           Al  tau(   4) = (   0.0000018   0.2886775   0.0000000  )
         5           Al  tau(   5) = (  -0.2499994   0.5773550   0.0000000  )
         6           Al  tau(   6) = (  -0.1249979   0.5051854   0.0000000  )
         7           Al  tau(   7) = (  -0.3749991   0.7938629   0.0000000  )
         8           Al  tau(   8) = (  -0.2499976   0.7216932   0.0000000  )
         9           Al  tau(   9) = (   0.2500011   0.1443403   0.0000000  )
        10           Al  tau(  10) = (   0.1250014   0.3608482   0.0000000  )
        11           Al  tau(  11) = (   0.2500030   0.2886785   0.0000000  )
        12           Al  tau(  12) = (   0.0000017   0.5773560   0.0000000  )
        13           Al  tau(  13) = (   0.1250033   0.5051864   0.0000000  )
        14           Al  tau(  14) = (  -0.1249980   0.7938639   0.0000000  )
        15           Al  tau(  15) = (   0.0000036   0.7216942   0.0000000  )
        16           Al  tau(  16) = (   0.5000023   0.1443413   0.0000000  )
        17           Al  tau(  17) = (   0.6250038   0.0721717   0.0000000  )
        18           Al  tau(  18) = (   0.3750026   0.3608492   0.0000000  )
        19           Al  tau(  19) = (   0.5000041   0.2886795   0.0000000  )
        20           Al  tau(  20) = (   0.2500029   0.5773571   0.0000000  )
        21           Al  tau(  21) = (   0.3750044   0.5051874   0.0000000  )
        22           Al  tau(  22) = (   0.1250032   0.7938649   0.0000000  )
        23           Al  tau(  23) = (   0.2500047   0.7216953   0.0000000  )
        24           Al  tau(  24) = (   0.7500035   0.1443423   0.0000000  )
        25           Al  tau(  25) = (   0.8750050   0.0721727   0.0000000  )
        26           Al  tau(  26) = (   0.6250038   0.3608502   0.0000000  )
        27           Al  tau(  27) = (   0.7500053   0.2886805   0.0000000  )
        28           Al  tau(  28) = (   0.5000041   0.5773581   0.0000000  )
        29           Al  tau(  29) = (   0.6250056   0.5051884   0.0000000  )
        30           Al  tau(  30) = (   0.3750044   0.7938660   0.0000000  )
        31           Al  tau(  31) = (   0.5000059   0.7216963   0.0000000  )

     number of k points=     1  Methfessel-Paxton smearing, width (Ry)=  0.0500
                       cart. coord. in units 2pi/alat
        k(    1) = (   0.0000000   0.0000000   0.0000000), wk =   2.0000000

     Initial potential from superposition of free atoms

     starting charge   92.92414, renormalised to   93.00000

     negative rho (up, down):  9.278E-05 0.000E+00
     Starting wfcs are  124 randomized atomic wfcs

     Self-consistent Calculation

     iteration #  1     ecut=    80.00 Ry     beta= 0.40
     Davidson diagonalization with overlap
     ethr =  1.00E-02,  avg # of iterations =  2.0

     total energy              =    -140.64231520 Ry
     Harris-Foulkes estimate   =    -141.23601674 Ry
     estimated scf accuracy    <       1.54835569 Ry

[...]

     End of self-consistent calculation

          k = 0.0000 0.0000 0.0000 (448403 PWs)   bands (ev):

    -9.9529  -9.4483  -9.4329  -9.4328  -9.4259  -9.4258  -9.1458  -8.4048
    -8.4047  -8.3881  -8.3880  -8.3797  -8.3034  -8.2569  -8.2568  -7.5863
    -6.9324  -6.9324  -6.8233  -6.4865  -6.4772  -6.4772  -6.3700  -6.3699
    -5.4639  -4.8435  -4.8432  -4.8369  -4.7357  -4.7354  -4.4779  -4.4680
    -4.4429  -4.4428  -4.1225  -4.1223  -3.9778  -3.4712  -3.4687  -3.4686
    -3.4577  -3.4575  -3.4017  -3.2744  -3.2743  -3.2223  -3.2073  -2.9743
    -2.9652  -2.9651  -2.9389  -2.5197  -2.5196  -2.4496  -2.4483  -2.4313

     the Fermi energy is    -3.0910 ev

!    total energy              =    -140.93611517 Ry
     Harris-Foulkes estimate   =    -140.93611551 Ry
     estimated scf accuracy    <       0.00000036 Ry

     The total energy is the sum of the following terms:

     one-electron contribution =    -502.03578512 Ry
     hartree contribution      =     259.76291244 Ry
     xc contribution           =     -61.33568501 Ry
     ewald contribution        =     162.75343587 Ry
     smearing contrib. (-TS)   =      -0.08099335 Ry

     convergence has been achieved in  19 iterations

     Forces acting on atoms (cartesian axes, Ry/au):

     atom    1 type  1   force =     0.00369760   -0.00394527    0.00000000
     atom    2 type  1   force =    -0.00253282   -0.00219683    0.00000000
     atom    3 type  1   force =     0.00002230    0.00001233    0.00000000
     atom    4 type  1   force =    -0.00185302    0.00108409    0.00000000
     atom    5 type  1   force =    -0.00155893    0.00523072    0.00000000
     atom    6 type  1   force =     0.00000078   -0.00216130    0.00000000
     atom    7 type  1   force =     0.00114400    0.00065556    0.00000000
     atom    8 type  1   force =    -0.00315376   -0.00112393    0.00000000
     atom    9 type  1   force =     0.01311567   -0.00761713    0.00000000
     atom   10 type  1   force =     0.00525526   -0.00124128    0.00000000
     atom   11 type  1   force =     0.00061212    0.00332415    0.00000000
     atom   12 type  1   force =     0.00156499    0.00521235    0.00000000
     atom   13 type  1   force =    -0.00202100   -0.00116340    0.00000000
     atom   14 type  1   force =     0.00000855    0.01511658    0.00000000
     atom   15 type  1   force =     0.00312848   -0.00111610    0.00000000
     atom   16 type  1   force =    -0.01309253   -0.00762003    0.00000000
     atom   17 type  1   force =     0.00251945   -0.00218605    0.00000000
     atom   18 type  1   force =     0.00001099   -0.00125404    0.00000000
     atom   19 type  1   force =    -0.00061446    0.00333679    0.00000000
     atom   20 type  1   force =    -0.00046280   -0.00022384    0.00000000
     atom   21 type  1   force =     0.00001826    0.00125925    0.00000000
     atom   22 type  1   force =    -0.00114078    0.00066171    0.00000000
     atom   23 type  1   force =     0.00113985   -0.00068863    0.00000000
     atom   24 type  1   force =    -0.00368693   -0.00395656    0.00000000
     atom   25 type  1   force =    -0.00001327    0.00237007    0.00000000
     atom   26 type  1   force =    -0.00527093   -0.00125410    0.00000000
     atom   27 type  1   force =     0.00183895    0.00107419    0.00000000
     atom   28 type  1   force =     0.00047146   -0.00023022    0.00000000
     atom   29 type  1   force =     0.00198512   -0.00115065    0.00000000
     atom   30 type  1   force =    -0.00000485    0.00049478    0.00000000
     atom   31 type  1   force =    -0.00112776   -0.00070322    0.00000000

     Total force =     0.031194     Total SCF correction =     0.000489

     Computing stress (Cartesian axis) and pressure

          total   stress  (Ry/bohr**3)                   (kbar)     P=   -0.57
  -0.00000577   0.00000000   0.00000000         -0.85      0.00      0.00
   0.00000000  -0.00000581   0.00000000          0.00     -0.85      0.00
   0.00000000   0.00000000   0.00000000          0.00      0.00      0.00

     BFGS Geometry Optimization

     number of scf cycles    =   1
     number of bfgs steps    =   0

     enthalpy new            =    -140.9361151682 Ry

     new trust radius        =       0.0151671169 bohr
     new conv_thr            =       0.0000010000 Ry

     new unit-cell volume =  37119.56399 a.u.^3 (  5500.55181 Ang^3 )
     density =      0.28059 g/cm^3

CELL_PARAMETERS (alat= 33.68096681)
   0.999855713   0.000000033   0.000000000
  -0.499927828   0.865899646   0.000000000
   0.000000000   0.000000000   1.122132950

ATOMIC_POSITIONS (angstrom)
Al       0.001955904   2.570126904   0.000000000
Al       2.226265205   1.284944395   0.000000000
Al      -2.227561756   6.430523616   0.000000000
Al      -0.000948168   5.144983079   0.000000000
Al      -4.455971445  10.291587415   0.000000000
Al      -2.227540378   9.001568690   0.000000000
Al      -6.682114382  14.147469447   0.000000000
Al      -4.456782505  12.860420310   0.000000000
Al       4.462116892   2.568202463   0.000000000
Al       2.230384887   6.429878674   0.000000000
Al       4.455534020   5.146186637   0.000000000
Al       0.000859306  10.291596041   0.000000000
Al       2.226567775   9.002115019   0.000000000
Al      -2.227537268  14.155139120   0.000000000
Al       0.001719311  12.860442797   0.000000000
Al       8.903427992   2.568219269   0.000000000
Al      11.139294129   1.284986787   0.000000000
Al       6.682788018   6.429890264   0.000000000
Al       8.910062913   5.146211671   0.000000000
Al       4.454964279  10.288738093   0.000000000
Al       6.682824631   9.003415190   0.000000000
Al       2.227032501  14.147509384   0.000000000
Al       4.455845007  12.860687314   0.000000000
Al      13.363582385   2.570175956   0.000000000
Al      15.593131942   1.287415771   0.000000000
Al      11.135171231   6.429908578   0.000000000
Al      13.366538899   5.145032869   0.000000000
Al       8.910636475  10.288753058   0.000000000
Al      11.139043181   9.002158451   0.000000000
Al       6.682811406  14.147439403   0.000000000
Al       8.909823092  12.860697937   0.000000000

     Writing output data file 10al_planar_2x2_vcr.save/
     NEW-OLD atomic charge density approx. for the potential

     negative rho (up, down):  2.992E-07 0.000E+00
     extrapolated charge   92.97309, renormalised to   93.00000

[...]

     Threshold (ethr) on eigenvalues was too large:
     Diagonalizing with lowered threshold

     Davidson diagonalization with overlap
     ethr =  8.26E-08,  avg # of iterations =  4.0

     negative rho (up, down):  1.480E-07 0.000E+00

[...]

     enthalpy old            =    -140.9361151682 Ry
     enthalpy new            =    -140.9371171943 Ry

     CASE: enthalpy_new < enthalpy_old

     WARNING: bfgs curvature condition failed, Theta= 0.853
     new trust radius        =       0.0227473869 bohr
     new conv_thr            =       0.0000010000 Ry

[...]

     iteration #  2     ecut=    80.00 Ry     beta= 0.40
     Davidson diagonalization with overlap
     c_bands:  1 eigenvalues not converged
     ethr =  2.30E-07,  avg # of iterations = 20.0

[...]

     Writing output data file 10al_planar_2x2_vcr.save/
     NEW-OLD atomic charge density approx. for the potential

[...]

     Writing output data file 10al_planar_2x2_vcr.save/
     NEW-OLD atomic charge density approx. for the potential
     Check: negative starting charge=   -0.000121

[...]

     Writing output data file 10al_planar_2x2_vcr.save/
     Check: negative starting charge=   -0.000121
     NEW-OLD atomic charge density approx. for the potential
     Check: negative starting charge=   -0.000133

[...]

     CASE: enthalpy_new > enthalpy_old

[...]

     WARNING: info= 94 for Hessian
     new trust radius        =       0.2694688127 bohr
     new conv_thr            =       0.0000008677 Ry

[...]

     WARNING: info= 94 for Hessian

[...]

     iteration #  1     ecut=    80.00 Ry     beta= 0.40
     Davidson diagonalization with overlap
     c_bands:  1 eigenvalues not converged
     ethr =  1.00E-06,  avg # of iterations = 20.0

[...]

     WARNING: info= 95 for Hessian

     WARNING: bfgs curvature condition failed, Theta= 0.964
     new trust radius        =       0.0291332023 bohr
     new conv_thr            =       0.0000003276 Ry

[...]

     WARNING: info= 95 for Hessian
     new trust radius        =       0.0194367475 bohr
     new conv_thr            =       0.0000001925 Ry

[...]

     new trust radius        =       0.0000031468 bohr

     trust_radius < trust_radius_min

     resetting bfgs history

     new conv_thr            =       0.0000001925 Ry

[...]

     CASE: enthalpy_new < enthalpy_old

[...]

     new trust radius        =       0.0001474021 bohr
     new conv_thr            =       0.0000000280 Ry

[...]

     Self-consistent Calculation

[...]

     Threshold (ethr) on eigenvalues was too large:
     Diagonalizing with lowered threshold

     Davidson diagonalization with overlap
     ethr =  7.63E-10,  avg # of iterations = 10.0

[...]

     negative rho (up, down):  1.376E-08 0.000E+00

[...]

     total energy              =    -142.09331771 Ry
     Harris-Foulkes estimate   =    -142.09331772 Ry
     estimated scf accuracy    <       0.00000003 Ry

     iteration #  6     ecut=    80.00 Ry     beta= 0.40
     Davidson diagonalization with overlap
     ethr =  3.06E-11,  avg # of iterations =  4.0

     End of self-consistent calculation

          k = 0.0000 0.0000 0.0000 (448403 PWs)   bands (ev):

   -11.5544 -10.8790 -10.8274 -10.6834 -10.6165 -10.4700 -10.3678  -9.2072
    -9.1686  -8.9547  -8.9371  -8.8271  -8.6521  -8.3496  -8.1757  -8.1010
    -8.0870  -7.9193  -7.8454  -6.1235  -6.1179  -6.0761  -5.9735  -5.7475
    -5.6690  -5.6211  -5.5984  -5.5275  -5.4440  -5.3632  -4.9450  -4.8275
    -4.3071  -4.2661  -4.1431  -4.1419  -4.1019  -4.0393  -4.0057  -3.9760
    -3.8624  -3.7991  -3.6569  -3.5228  -2.5226  -2.4918  -2.3360  -2.3220
    -2.2526  -2.1553  -2.1214  -1.9303  -1.7948  -1.7294  -1.6788  -1.6033

     the Fermi energy is    -2.4361 ev

!    total energy              =    -142.09331771 Ry
     Harris-Foulkes estimate   =    -142.09331772 Ry
     estimated scf accuracy    <          4.9E-09 Ry

     The total energy is the sum of the following terms:

     one-electron contribution =    -684.76282424 Ry
     hartree contribution      =     351.19490758 Ry
     xc contribution           =     -63.59699551 Ry
     ewald contribution        =     255.11334777 Ry
     smearing contrib. (-TS)   =      -0.04175331 Ry

     convergence has been achieved in   6 iterations

     Forces acting on atoms (cartesian axes, Ry/au):

     atom    1 type  1   force =     0.00066584   -0.00134526    0.00000000
     atom    2 type  1   force =     0.00000374   -0.00052092    0.00000000
     atom    3 type  1   force =    -0.00050159   -0.00006658    0.00000000
     atom    4 type  1   force =     0.00075882    0.00038960    0.00000000
     atom    5 type  1   force =    -0.00076731    0.00003012    0.00000000
     atom    6 type  1   force =     0.00029685    0.00071251    0.00000000
     atom    7 type  1   force =     0.00028865   -0.00049042    0.00000000
     atom    8 type  1   force =     0.00035420    0.00019533    0.00000000
     atom    9 type  1   force =     0.00024657    0.00084094    0.00000000
     atom   10 type  1   force =     0.00050587   -0.00136660    0.00000000
     atom   11 type  1   force =     0.00027500    0.00074326    0.00000000
     atom   12 type  1   force =    -0.00067697    0.00064727    0.00000000
     atom   13 type  1   force =    -0.00022403   -0.00048839    0.00000000
     atom   14 type  1   force =    -0.00037535   -0.00016412    0.00000000
     atom   15 type  1   force =     0.00045382    0.00024121    0.00000000
     atom   16 type  1   force =     0.00048841   -0.00123640    0.00000000
     atom   17 type  1   force =    -0.00068179    0.00048003    0.00000000
     atom   18 type  1   force =    -0.00042534   -0.00103673    0.00000000
     atom   19 type  1   force =     0.00069101    0.00012163    0.00000000
     atom   20 type  1   force =     0.00007064    0.00110206    0.00000000
     atom   21 type  1   force =    -0.00003168    0.00079136    0.00000000
     atom   22 type  1   force =    -0.00020562    0.00075636    0.00000000
     atom   23 type  1   force =    -0.00089120   -0.00047129    0.00000000
     atom   24 type  1   force =    -0.00037720    0.00005572    0.00000000
     atom   25 type  1   force =     0.00009886   -0.00004038    0.00000000
     atom   26 type  1   force =    -0.00077494    0.00031076    0.00000000
     atom   27 type  1   force =     0.00064605    0.00012248    0.00000000
     atom   28 type  1   force =    -0.00035574   -0.00010527    0.00000000
     atom   29 type  1   force =     0.00012697    0.00011229    0.00000000
     atom   30 type  1   force =     0.00028574    0.00007486    0.00000000
     atom   31 type  1   force =     0.00003171   -0.00039541    0.00000000

     Total force =     0.004437     Total SCF correction =     0.000059

     Computing stress (Cartesian axis) and pressure

          total   stress  (Ry/bohr**3)                   (kbar)     P=   -0.08
   0.00000045  -0.00000161   0.00000000          0.07     -0.24      0.00
  -0.00000161  -0.00000199   0.00000000         -0.24     -0.29      0.00
   0.00000000   0.00000000  -0.00000000          0.00      0.00     -0.00

     number of scf cycles    = 300
     number of bfgs steps    = 245

     enthalpy old            =    -142.0934007865 Ry
     enthalpy new            =    -142.0933177126 Ry

     CASE: enthalpy_new > enthalpy_old

     new trust radius        =       0.0000016351 bohr

     trust_radius < trust_radius_min

     resetting bfgs history

     new conv_thr            =       0.0000000280 Ry

     new unit-cell volume =  26797.16448 a.u.^3 (  3970.93004 Ang^3 )
     density =      0.38867 g/cm^3

CELL_PARAMETERS (alat= 33.68096681)
   0.836327064  -0.025081643   0.000000000
  -0.420073597   0.759932082   0.000000000
   0.000000000   0.000000000   1.122132950

ATOMIC_POSITIONS (angstrom)
Al      -0.910690719   0.464141832   0.000000000
Al       1.331188675   1.770016720   0.000000000
Al      -1.836292815   6.531969846   0.000000000
Al       1.308509955   4.262499413   0.000000000
Al      -5.111291741  10.031418010   0.000000000
Al      -2.524538798   9.289862496   0.000000000
Al      -5.802594623  12.703329778   0.000000000
Al      -3.170512637  11.893867357   0.000000000
Al       3.806118395   0.876290339   0.000000000
Al       3.359860617   5.995366800   0.000000000
Al       3.799185681   3.448887075   0.000000000
Al       0.084856379   9.048274598   0.000000000
Al       0.788970256   6.664883297   0.000000000
Al      -1.085017383  13.965669758   0.000000000
Al      -0.571571683  11.484577010   0.000000000
Al       9.020232766   2.517000312   0.000000000
Al       9.034648121  -0.052335754   0.000000000
Al       5.941945305   5.472044525   0.000000000
Al       6.428949254   2.983271626   0.000000000
Al       2.699688610   8.478987977   0.000000000
Al       5.308149927   7.914799391   0.000000000
Al       2.018465712  10.956884209   0.000000000
Al       4.606051254  10.306907342   0.000000000
Al      11.513312432   1.649803617   0.000000000
Al      13.724899827   3.014794936   0.000000000
Al       8.535068957   5.049247208   0.000000000
Al      11.142106853   4.250503586   0.000000000
Al       7.911679200   7.649026005   0.000000000
Al      10.498486525   6.908976455   0.000000000
Al       4.043533988  12.702055518   0.000000000
Al       7.224533901  10.385156121   0.000000000

     Writing output data file 10al_planar_2x2_vcr.save/
     Check: negative starting charge=   -0.000131
     NEW-OLD atomic charge density approx. for the potential
     Check: negative starting charge=   -0.000131

     negative rho (up, down):  9.644E-08 0.000E+00
     extrapolated charge   92.99914, renormalised to   93.00000

     Writing output data file 10al_planar_2x2_vcr.save/

     General routines

     Parallel routines

   This run was terminated on:   1:56:22  27Nov2020

   JOB DONE.