     Program PWSCF v.6.3MaX starts on 26Nov2020 at  9: 8:50

     R & G space division:  proc/nbgrp/npool/nimage =       8
     Waiting for input...
     Reading input from standard input

     Current dimensions of program PWSCF are:
     Max number of different atomic species (ntypx) = 10
     Max number of k-points (npk) =  40000
     Max angular momentum in pseudopotentials (lmaxx) =  3

     Subspace diagonalization in iterative solution of the eigenvalue problem:
     a serial algorithm will be used

     Message from routine find_sym:
     Not a group! Trying with lower acceptance parameter...
     Message from routine find_sym:
     Symmetry operations form a group

     bravais-lattice index     =            4
     lattice parameter (alat)  =      33.6810  a.u.
     unit-cell volume          =   37130.3117 (a.u.)^3
     number of atoms/cell      =           31
     number of atomic types    =            1
     number of electrons       =        93.00
     number of Kohn-Sham states=           56
     kinetic-energy cutoff     =      80.0000  Ry
     charge density cutoff     =     320.0000  Ry
     convergence threshold     =      1.0E-06
     mixing beta               =       0.4000
     number of iterations used =            8  plain     mixing
     Exchange-correlation      = PBE ( 1  4  3  4 0 0)
     nstep                     =          300

     celldm(1)=  33.680967  celldm(2)=   0.000000  celldm(3)=   1.122133
     celldm(4)=   0.000000  celldm(5)=   0.000000  celldm(6)=   0.000000

     crystal axes: (cart. coord. in units of alat)
               a(1) = (   1.000000   0.000000   0.000000 )
               a(2) = (  -0.500000   0.866025   0.000000 )
               a(3) = (   0.000000   0.000000   1.122133 )

     reciprocal axes: (cart. coord. in units 2 pi/alat)
               b(1) = (  1.000000  0.577350  0.000000 )
               b(2) = (  0.000000  1.154701  0.000000 )
               b(3) = (  0.000000  0.000000  0.891160 )

     PseudoPot. # 1 for Al read from file:
     ./Al.upf
     MD5 check sum: 4974d48a734c9d7d1eb6780a1419d19d
     Pseudo is Norm-conserving + core correction, Zval =  3.0
     Generated using ONCVPSP code by D. R. Hamann
     Using radial grid of 1876 points,  6 beta functions with:
                l(1) =   0
                l(2) =   0
                l(3) =   1
                l(4) =   1
                l(5) =   2
                l(6) =   2

     atomic species   valence    mass     pseudopotential
        Al             3.00    29.98200     Al( 1.00)

      2 Sym. Ops. (no inversion) found

   Cartesian axes

     site n.     atom                  positions (alat units)
         1           Al  tau(   1) = (  -0.0000000   0.1443393   0.0000000  )
         2           Al  tau(   2) = (   0.1250015   0.0721696   0.0000000  )
         3           Al  tau(   3) = (  -0.1249997   0.3608472   0.0000000  )
         4           Al  tau(   4) = (   0.0000018   0.2886775   0.0000000  )
         5           Al  tau(   5) = (  -0.2499994   0.5773550   0.0000000  )
         6           Al  tau(   6) = (  -0.1249979   0.5051854   0.0000000  )
         7           Al  tau(   7) = (  -0.3749991   0.7938629   0.0000000  )
         8           Al  tau(   8) = (  -0.2499976   0.7216932   0.0000000  )
         9           Al  tau(   9) = (   0.2500011   0.1443403   0.0000000  )
        10           Al  tau(  10) = (   0.3750027   0.0721706   0.0000000  )
        11           Al  tau(  11) = (   0.1250014   0.3608482   0.0000000  )
        12           Al  tau(  12) = (   0.2500030   0.2886785   0.0000000  )
        13           Al  tau(  13) = (   0.0000017   0.5773560   0.0000000  )
        14           Al  tau(  14) = (   0.1250033   0.5051864   0.0000000  )
        15           Al  tau(  15) = (  -0.1249980   0.7938639   0.0000000  )
        16           Al  tau(  16) = (   0.0000036   0.7216942   0.0000000  )
        17           Al  tau(  17) = (   0.5000023   0.1443413   0.0000000  )
        18           Al  tau(  18) = (   0.6250038   0.0721717   0.0000000  )
        19           Al  tau(  19) = (   0.3750026   0.3608492   0.0000000  )
        20           Al  tau(  20) = (   0.5000041   0.2886795   0.0000000  )
        21           Al  tau(  21) = (   0.2500029   0.5773571   0.0000000  )
        22           Al  tau(  22) = (   0.3750044   0.5051874   0.0000000  )
        23           Al  tau(  23) = (   0.1250032   0.7938649   0.0000000  )
        24           Al  tau(  24) = (   0.2500047   0.7216953   0.0000000  )
        25           Al  tau(  25) = (   0.8750050   0.0721727   0.0000000  )
        26           Al  tau(  26) = (   0.6250038   0.3608502   0.0000000  )
        27           Al  tau(  27) = (   0.7500053   0.2886805   0.0000000  )
        28           Al  tau(  28) = (   0.5000041   0.5773581   0.0000000  )
        29           Al  tau(  29) = (   0.6250056   0.5051884   0.0000000  )
        30           Al  tau(  30) = (   0.3750044   0.7938660   0.0000000  )
        31           Al  tau(  31) = (   0.5000059   0.7216963   0.0000000  )

     number of k points=     1  Methfessel-Paxton smearing, width (Ry)=  0.0500
                       cart. coord. in units 2pi/alat
        k(    1) = (   0.0000000   0.0000000   0.0000000), wk =   2.0000000

     Initial potential from superposition of free atoms

     starting charge   92.92414, renormalised to   93.00000

     negative rho (up, down):  9.278E-05 0.000E+00
     Starting wfcs are  124 randomized atomic wfcs

     Self-consistent Calculation

     iteration #  1     ecut=    80.00 Ry     beta= 0.40
     Davidson diagonalization with overlap
     ethr =  1.00E-02,  avg # of iterations =  2.0

     total energy              =    -140.64257954 Ry
     Harris-Foulkes estimate   =    -141.23596621 Ry
     estimated scf accuracy    <       1.54782652 Ry

[...]

     End of self-consistent calculation

          k = 0.0000 0.0000 0.0000 (448403 PWs)   bands (ev):

    -9.9529  -9.4482  -9.4329  -9.4329  -9.4259  -9.4258  -9.1459  -8.4048
    -8.4048  -8.3881  -8.3880  -8.3797  -8.3033  -8.2570  -8.2569  -7.5864
    -6.9325  -6.9323  -6.8233  -6.4866  -6.4772  -6.4772  -6.3700  -6.3700
    -5.4640  -4.8435  -4.8434  -4.8369  -4.7356  -4.7355  -4.4780  -4.4680
    -4.4428  -4.4428  -4.1225  -4.1224  -3.9778  -3.4711  -3.4687  -3.4687
    -3.4576  -3.4576  -3.4017  -3.2744  -3.2744  -3.2224  -3.2074  -2.9743
    -2.9652  -2.9652  -2.9389  -2.5198  -2.5197  -2.4494  -2.4488  -2.4314

     the Fermi energy is    -3.0910 ev

!    total energy              =    -140.93610851 Ry
     Harris-Foulkes estimate   =    -140.93610862 Ry
     estimated scf accuracy    <       0.00000011 Ry

     The total energy is the sum of the following terms:

     one-electron contribution =    -502.03579093 Ry
     hartree contribution      =     259.76294994 Ry
     xc contribution           =     -61.33571610 Ry
     ewald contribution        =     162.75344938 Ry
     smearing contrib. (-TS)   =      -0.08100081 Ry

     convergence has been achieved in  19 iterations

     Forces acting on atoms (cartesian axes, Ry/au):

     atom    1 type  1   force =     0.00254357    0.00221962    0.00000000
     atom    2 type  1   force =    -0.00369410    0.00398816    0.00000000
     atom    3 type  1   force =     0.00318860    0.00111614    0.00000000
     atom    4 type  1   force =    -0.00114393   -0.00066783    0.00000000
     atom    5 type  1   force =     0.00000603    0.00216761    0.00000000
     atom    6 type  1   force =     0.00158063   -0.00519975    0.00000000
     atom    7 type  1   force =     0.00188721   -0.00110210    0.00000000
     atom    8 type  1   force =    -0.00000848   -0.00000252    0.00000000
     atom    9 type  1   force =    -0.00000982   -0.00233562    0.00000000
     atom   10 type  1   force =     0.00370133    0.00397347    0.00000000
     atom   11 type  1   force =     0.00114352    0.00066511    0.00000000
     atom   12 type  1   force =    -0.00002913   -0.00052057    0.00000000
     atom   13 type  1   force =    -0.00201947    0.00114898    0.00000000
     atom   14 type  1   force =    -0.00046820    0.00023898    0.00000000
     atom   15 type  1   force =    -0.00185014   -0.00110309    0.00000000
     atom   16 type  1   force =     0.00526144    0.00124894    0.00000000
     atom   17 type  1   force =    -0.00254274    0.00220940    0.00000000
     atom   18 type  1   force =     0.01311714    0.00760501    0.00000000
     atom   19 type  1   force =    -0.00110843    0.00068078    0.00000000
     atom   20 type  1   force =     0.00111283   -0.00066944    0.00000000
     atom   21 type  1   force =     0.00001045   -0.00129497    0.00000000
     atom   22 type  1   force =     0.00046373    0.00025009    0.00000000
     atom   23 type  1   force =     0.00063020   -0.00333391    0.00000000
     atom   24 type  1   force =    -0.00002351    0.00128577    0.00000000
     atom   25 type  1   force =    -0.01310930    0.00760468    0.00000000
     atom   26 type  1   force =    -0.00315511    0.00112839    0.00000000
     atom   27 type  1   force =    -0.00000735   -0.01514690    0.00000000
     atom   28 type  1   force =     0.00200820    0.00114387    0.00000000
     atom   29 type  1   force =    -0.00158955   -0.00520698    0.00000000
     atom   30 type  1   force =    -0.00059327   -0.00333360    0.00000000
     atom   31 type  1   force =    -0.00530235    0.00124227    0.00000000

     Total force =     0.031238     Total SCF correction =     0.000261

     Computing stress (Cartesian axis) and pressure

          total   stress  (Ry/bohr**3)                   (kbar)     P=   -0.57
  -0.00000578   0.00000002   0.00000000         -0.85      0.00      0.00
   0.00000002  -0.00000579   0.00000000          0.00     -0.85      0.00
   0.00000000   0.00000000   0.00000000          0.00      0.00      0.00

     BFGS Geometry Optimization

     number of scf cycles    =   1
     number of bfgs steps    =   0

     enthalpy new            =    -140.9361085112 Ry

     new trust radius        =       0.0151623069 bohr
     new conv_thr            =       0.0000010000 Ry

     new unit-cell volume =  37119.56657 a.u.^3 (  5500.55219 Ang^3 )
     density =      0.28059 g/cm^3

CELL_PARAMETERS (alat= 33.68096681)
   0.999855378   0.000000398   0.000000000
  -0.499927345   0.865899814   0.000000000
   0.000000000   0.000000000   1.122132950

ATOMIC_POSITIONS (angstrom)
Al       0.001346243   2.573389789   0.000000000
Al       2.225650494   1.288218209   0.000000000
Al      -2.225883376   6.431109437   0.000000000
Al      -0.000571116   5.144058222   0.000000000
Al      -4.455138180  10.289969263   0.000000000
Al      -2.226700454   8.999963875   0.000000000
Al      -6.681713752  14.146542756   0.000000000
Al      -4.455112155  12.861017226   0.000000000
Al       4.455171626   2.570999576   0.000000000
Al       6.684739810   1.288230406   0.000000000
Al       2.228210955   6.430890762   0.000000000
Al       4.455195114   5.144156100   0.000000000
Al      -0.001033488  10.289450270   0.000000000
Al       2.227391901   9.002861475   0.000000000
[...]

     CASE: enthalpy_new < enthalpy_old

     WARNING: bfgs curvature condition failed, Theta= 0.854
     new trust radius        =       0.0227401780 bohr
     new conv_thr            =       0.0000010000 Ry

[...]

     iteration #  2     ecut=    80.00 Ry     beta= 0.40
     Davidson diagonalization with overlap
     c_bands:  1 eigenvalues not converged
     ethr =  1.34E-07,  avg # of iterations = 20.0

[...]

     Writing output data file 25al_planar_2x2_vcr.save/
     NEW-OLD atomic charge density approx. for the potential

[...]

     Writing output data file 25al_planar_2x2_vcr.save/
     NEW-OLD atomic charge density approx. for the potential
     Check: negative starting charge=   -0.000121

[...]

     Writing output data file 25al_planar_2x2_vcr.save/
     Check: negative starting charge=   -0.000121
     NEW-OLD atomic charge density approx. for the potential
     Check: negative starting charge=   -0.000133

[...]

     WARNING: bfgs curvature condition failed, Theta= 0.936
     new trust radius        =       0.0406818780 bohr
     new conv_thr            =       0.0000010000 Ry

[...]

     iteration #  1     ecut=    80.00 Ry     beta= 0.40
     Davidson diagonalization with overlap
     c_bands:  1 eigenvalues not converged
     ethr =  1.00E-06,  avg # of iterations = 20.0

[...]

     Total force =     0.000466     Total SCF correction =     0.000043

[...]

     Total force =     0.000369     Total SCF correction =     0.000043
     SCF correction compared to forces is large: reduce conv_thr to get better values

[...]

     Writing output data file 25al_planar_2x2_vcr.save/
     Check: negative starting charge=   -0.000131
     NEW-OLD atomic charge density approx. for the potential
     Check: negative starting charge=   -0.000131

     negative rho (up, down):  1.267E-08 0.000E+00
     extrapolated charge   92.99981, renormalised to   93.00000

[...]

     Writing output data file 25al_planar_2x2_vcr.save/
     Check: negative starting charge=   -0.000131
     NEW-OLD atomic charge density approx. for the potential
     Check: negative starting charge=   -0.000131
     extrapolated charge   93.00008, renormalised to   93.00000

[...]

     small trust_radius: resetting bfgs history

[...]

     number of scf cycles    = 166
     number of bfgs steps    = 165

     enthalpy old            =    -142.2701674160 Ry
     enthalpy new            =    -142.2701674253 Ry

     CASE: enthalpy_new < enthalpy_old

     WARNING: bfgs curvature condition failed, Theta= 0.945
     Message from routine bfgs:
     history already reset at previous step: stopping
     small trust_radius: resetting bfgs history

     new trust radius        =       0.0000306124 bohr
     new conv_thr            =       0.0000000100 Ry

     new unit-cell volume =  26092.74339 a.u.^3 (  3866.54560 Ang^3 )
     density =      0.39916 g/cm^3

[...]

ATOMIC_POSITIONS (angstrom)
Al      -0.603850170   2.017107791   0.000000000
Al       2.047302109   1.601391298   0.000000000
Al      -1.568881430   4.520984479   0.000000000
Al       1.082101963   4.105074731   0.000000000
Al      -2.534003000   7.025019256   0.000000000
Al       0.116966973   6.608900323   0.000000000
Al      -7.115917672  12.448629636   0.000000000
Al      -3.499323374   9.528967125   0.000000000
Al       3.012789790  -0.902368865   0.000000000
Al       4.698415431   1.185486820   0.000000000
Al       2.768143628   6.192894233   0.000000000
Al       3.733227799   3.689224606   0.000000000
Al      -0.848291811   9.112842778   0.000000000
Al       1.802808308   8.696646877   0.000000000
Al      -1.813727350  11.616812015   0.000000000
Al       0.837283699  11.200581169   0.000000000
Al       7.349478600   0.769299732   0.000000000
Al       9.035349652   2.857144270   0.000000000
Al       5.419348075   5.776941354   0.000000000
Al       6.384430935   3.273201163   0.000000000
Al       4.453992491   8.280698995   0.000000000
Al       7.105177155   7.864925547   0.000000000
Al       2.522972337  13.288408482   0.000000000
Al       3.488443908  10.784486762   0.000000000
Al      11.686257587   2.441082350   0.000000000
Al       8.070381646   5.361097553   0.000000000
Al      10.721310187   4.945096910   0.000000000
Al       8.790724385   9.952980971   0.000000000
Al       9.756200520   7.449013580   0.000000000
Al       5.173988818  12.872464907   0.000000000
Al       6.139618876  10.368653976   0.000000000

     Writing output data file 25al_planar_2x2_vcr.save/
     Check: negative starting charge=   -0.000131
     NEW-OLD atomic charge density approx. for the potential
     Check: negative starting charge=   -0.000131
     extrapolated charge   93.00002, renormalised to   93.00000

[...]

     Threshold (ethr) on eigenvalues was too large:
     Diagonalizing with lowered threshold

     Davidson diagonalization with overlap
     ethr =  5.91E-11,  avg # of iterations =  2.0

[...]

     bfgs converged in 167 scf cycles and 166 bfgs steps
     (criteria: energy <  1.0E-05 Ry, force <  1.0E-04Ry/Bohr, cell <  5.0E-05kbar)

     End of BFGS Geometry Optimization

     Final enthalpy =    -142.2701674317 Ry
Begin final coordinates
     new unit-cell volume =  26092.74339 a.u.^3 (  3866.54560 Ang^3 )
     density =      0.39916 g/cm^3

CELL_PARAMETERS (alat= 33.68096681)
   0.838292673   0.000454005   0.000000000
  -0.419540738   0.725755213   0.000000000
   0.000000000   0.000000000   1.122132950

ATOMIC_POSITIONS (angstrom)
Al      -0.603850170   2.017107791   0.000000000
Al       2.047302109   1.601391298   0.000000000
Al      -1.568881430   4.520984479   0.000000000
Al       1.082101963   4.105074731   0.000000000
Al      -2.534003000   7.025019256   0.000000000
Al       0.116966973   6.608900323   0.000000000
Al      -7.115917672  12.448629636   0.000000000
Al      -3.499323374   9.528967125   0.000000000
Al       3.012789790  -0.902368865   0.000000000
Al       4.698415431   1.185486820   0.000000000
Al       2.768143628   6.192894233   0.000000000
Al       3.733227799   3.689224606   0.000000000
Al      -0.848291811   9.112842778   0.000000000
Al       1.802808308   8.696646877   0.000000000
Al      -1.813727350  11.616812015   0.000000000
Al       0.837283699  11.200581169   0.000000000
Al       7.349478600   0.769299732   0.000000000
Al       9.035349652   2.857144270   0.000000000
Al       5.419348075   5.776941354   0.000000000
Al       6.384430935   3.273201163   0.000000000
Al       4.453992491   8.280698995   0.000000000
Al       7.105177155   7.864925547   0.000000000
Al       2.522972337  13.288408482   0.000000000
Al       3.488443908  10.784486762   0.000000000
Al      11.686257587   2.441082350   0.000000000
Al       8.070381646   5.361097553   0.000000000
Al      10.721310187   4.945096910   0.000000000
Al       8.790724385   9.952980971   0.000000000
Al       9.756200520   7.449013580   0.000000000
Al       5.173988818  12.872464907   0.000000000
Al       6.139618876  10.368653976   0.000000000
End final coordinates

     Writing output data file 25al_planar_2x2_vcr.save/

     A final scf calculation at the relaxed structure.
     The G-vectors are recalculated for the final unit cell
     Results may differ from those at the preceding step.

     bravais-lattice index     =            4
     lattice parameter (alat)  =      33.6810  a.u.
     unit-cell volume          =   26092.7434 (a.u.)^3
     number of atoms/cell      =           31
     number of atomic types    =            1
     number of electrons       =        93.00
     number of Kohn-Sham states=           56
     kinetic-energy cutoff     =      80.0000  Ry
     charge density cutoff     =     320.0000  Ry
     convergence threshold     =      1.0E-08
     mixing beta               =       0.4000
     number of iterations used =            8  plain     mixing
     Exchange-correlation      = PBE ( 1  4  3  4 0 0)

     celldm(1)=  33.680967  celldm(2)=   0.000000  celldm(3)=   1.122133
     celldm(4)=   0.000000  celldm(5)=   0.000000  celldm(6)=   0.000000

     crystal axes: (cart. coord. in units of alat)
               a(1) = (   0.838293   0.000454   0.000000 )
               a(2) = (  -0.419541   0.725755   0.000000 )
               a(3) = (   0.000000   0.000000   1.122133 )

     reciprocal axes: (cart. coord. in units 2 pi/alat)
               b(1) = (  1.192527  0.689370  0.000000 )
               b(2) = ( -0.000746  1.377444  0.000000 )
               b(3) = (  0.000000  0.000000  0.891160 )

     PseudoPot. # 1 for Al read from file:
     ./Al.upf
     MD5 check sum: 4974d48a734c9d7d1eb6780a1419d19d
     Pseudo is Norm-conserving + core correction, Zval =  3.0
     Generated using ONCVPSP code by D. R. Hamann
     Using radial grid of 1876 points,  6 beta functions with:
                l(1) =   0
                l(2) =   0
                l(3) =   1
                l(4) =   1
                l(5) =   2
                l(6) =   2

     atomic species   valence    mass     pseudopotential
        Al             3.00    29.98200     Al( 1.00)

      2 Sym. Ops. (no inversion) found

   Cartesian axes

     site n.     atom                  positions (alat units)
         1           Al  tau(   1) = (  -0.0338800   0.1131732   0.0000000  )
         2           Al  tau(   2) = (   0.1148673   0.0898487   0.0000000  )
         3           Al  tau(   3) = (  -0.0880247   0.2536573   0.0000000  )
         4           Al  tau(   4) = (   0.0607131   0.2303220   0.0000000  )
         5           Al  tau(   5) = (  -0.1421744   0.3941503   0.0000000  )
         6           Al  tau(   6) = (   0.0065626   0.3708032   0.0000000  )
         7           Al  tau(   7) = (  -0.3992503   0.6984509   0.0000000  )
         8           Al  tau(   8) = (  -0.1963353   0.5346384   0.0000000  )
         9           Al  tau(   9) = (   0.1690375  -0.0506289   0.0000000  )
        10           Al  tau(  10) = (   0.2636123   0.0665137   0.0000000  )
        11           Al  tau(  11) = (   0.1553113   0.3474625   0.0000000  )
        12           Al  tau(  12) = (   0.2094589   0.2069900   0.0000000  )
        13           Al  tau(  13) = (  -0.0475948   0.5112911   0.0000000  )
        14           Al  tau(  14) = (   0.1011495   0.4879397   0.0000000  )
        15           Al  tau(  15) = (  -0.1017622   0.6517804   0.0000000  )
        16           Al  tau(  16) = (   0.0469772   0.6284271   0.0000000  )
        17           Al  tau(  17) = (   0.4123546   0.0431628   0.0000000  )
        18           Al  tau(  18) = (   0.5069432   0.1603048   0.0000000  )
        19           Al  tau(  19) = (   0.3040615   0.3241248   0.0000000  )
        20           Al  tau(  20) = (   0.3582090   0.1836483   0.0000000  )
        21           Al  tau(  21) = (   0.2498986   0.4646023   0.0000000  )
        22           Al  tau(  22) = (   0.3986477   0.4412746   0.0000000  )
        23           Al  tau(  23) = (   0.1415555   0.7455681   0.0000000  )
        24           Al  tau(  24) = (   0.1957249   0.6050814   0.0000000  )
        25           Al  tau(  25) = (   0.6556767   0.1369609   0.0000000  )
        26           Al  tau(  26) = (   0.4528021   0.3007932   0.0000000  )
        27           Al  tau(  27) = (   0.6015368   0.2774528   0.0000000  )
        28           Al  tau(  28) = (   0.4932181   0.5584284   0.0000000  )
        29           Al  tau(  29) = (   0.5473877   0.4179392   0.0000000  )
        30           Al  tau(  30) = (   0.2902952   0.7222309   0.0000000  )
        31           Al  tau(  31) = (   0.3444734   0.5817504   0.0000000  )

     number of k points=     1  Methfessel-Paxton smearing, width (Ry)=  0.0500
                       cart. coord. in units 2pi/alat
        k(    1) = (   0.0000000   0.0000000   0.0000000), wk =   2.0000000

     Initial potential from superposition of free atoms

     starting charge   92.92414, renormalised to   93.00000

     negative rho (up, down):  7.270E-05 0.000E+00
     Starting wfcs are  124 randomized atomic wfcs

     Self-consistent Calculation

[...]

     negative rho (up, down):  3.876E-08 0.000E+00

[...]

     total energy              =    -142.26988381 Ry
     Harris-Foulkes estimate   =    -142.26988381 Ry
     estimated scf accuracy    <       0.00000001 Ry

     iteration # 14     ecut=    80.00 Ry     beta= 0.40
     Davidson diagonalization with overlap
     ethr =  1.59E-11,  avg # of iterations =  5.0

     End of self-consistent calculation

          k = 0.0000 0.0000 0.0000 (315191 PWs)   bands (ev):

   -11.6236 -10.7478 -10.7478 -10.7477 -10.7477 -10.7477 -10.7477  -9.0217
    -9.0216  -9.0216  -9.0216  -9.0216  -9.0216  -8.1738  -8.1738  -8.1738
    -8.1737  -8.1737  -8.1737  -5.7782  -5.7782  -5.7781  -5.7781  -5.7780
    -5.7780  -5.7076  -5.7076  -5.7075  -5.7075  -5.7075  -5.7074  -4.8691
    -4.0234  -4.0234  -4.0233  -4.0233  -4.0233  -4.0233  -3.7524  -3.7524
    -3.7523  -3.7520  -3.7520  -3.7519  -2.3346  -2.3345  -2.3345  -2.3345
    -2.3345  -2.3345  -1.8112  -1.8112  -1.8112  -1.8111  -1.8110  -1.8109

     the Fermi energy is    -2.4051 ev

!    total energy              =    -142.26988381 Ry
     Harris-Foulkes estimate   =    -142.26988381 Ry
     estimated scf accuracy    <          6.3E-09 Ry

     The total energy is the sum of the following terms:

     one-electron contribution =    -702.58351513 Ry
     hartree contribution      =     360.19475933 Ry
     xc contribution           =     -63.84996813 Ry
     ewald contribution        =     264.01550404 Ry
     smearing contrib. (-TS)   =      -0.04666392 Ry

     convergence has been achieved in  14 iterations

     Forces acting on atoms (cartesian axes, Ry/au):

     atom    1 type  1   force =     0.00002312    0.00000198    0.00000000
     atom    2 type  1   force =     0.00000273   -0.00001244    0.00000000
     atom    3 type  1   force =    -0.00000266    0.00000651    0.00000000
     atom    4 type  1   force =     0.00000258    0.00000333    0.00000000
     atom    5 type  1   force =     0.00000442   -0.00001460    0.00000000
     atom    6 type  1   force =     0.00000346    0.00000034    0.00000000
     atom    7 type  1   force =     0.00000080    0.00000299    0.00000000
     atom    8 type  1   force =    -0.00000442   -0.00000425    0.00000000
     atom    9 type  1   force =    -0.00000665   -0.00001808    0.00000000
     atom   10 type  1   force =     0.00001382   -0.00001221    0.00000000
     atom   11 type  1   force =    -0.00000699    0.00000488    0.00000000
     atom   12 type  1   force =     0.00001398   -0.00000500    0.00000000
     atom   13 type  1   force =    -0.00000315   -0.00000481    0.00000000
     atom   14 type  1   force =    -0.00000324    0.00001327    0.00000000
     atom   15 type  1   force =    -0.00000174   -0.00000231    0.00000000
     atom   16 type  1   force =     0.00001915    0.00000687    0.00000000
     atom   17 type  1   force =     0.00001635   -0.00000265    0.00000000
     atom   18 type  1   force =     0.00001094   -0.00000228    0.00000000
     atom   19 type  1   force =    -0.00001620    0.00001461    0.00000000
     atom   20 type  1   force =    -0.00001345    0.00000265    0.00000000
     atom   21 type  1   force =    -0.00000581    0.00000578    0.00000000
     atom   22 type  1   force =    -0.00001833   -0.00000425    0.00000000
     atom   23 type  1   force =     0.00000120    0.00000502    0.00000000
     atom   24 type  1   force =    -0.00000189    0.00000923    0.00000000
     atom   25 type  1   force =     0.00000863    0.00000742    0.00000000
     atom   26 type  1   force =    -0.00001028   -0.00000466    0.00000000
     atom   27 type  1   force =    -0.00000772   -0.00000759    0.00000000
     atom   28 type  1   force =    -0.00000021   -0.00001287    0.00000000
     atom   29 type  1   force =    -0.00002266    0.00001380    0.00000000
     atom   30 type  1   force =     0.00001348   -0.00000029    0.00000000
     atom   31 type  1   force =    -0.00000926    0.00000962    0.00000000

     Total force =     0.000077     Total SCF correction =     0.000083
     SCF correction compared to forces is large: reduce conv_thr to get better values

     Computing stress (Cartesian axis) and pressure

          total   stress  (Ry/bohr**3)                   (kbar)     P=    0.00
   0.00000005   0.00000000   0.00000000          0.01      0.00      0.00
   0.00000000   0.00000005   0.00000000          0.00      0.01      0.00
   0.00000000   0.00000000  -0.00000002          0.00      0.00     -0.00

     Writing output data file 25al_planar_2x2_vcr.save/

     General routines

     Parallel routines

      15h

   This run was terminated on:   4:24:22  27Nov2020

   JOB DONE.