     Program PWSCF v.6.3MaX starts on 26Nov2020 at  4:11: 3

     R & G space division:  proc/nbgrp/npool/nimage =       8
     Waiting for input...
     Reading input from standard input

     Current dimensions of program PWSCF are:
     Max number of different atomic species (ntypx) = 10
     Max number of k-points (npk) =  40000
     Max angular momentum in pseudopotentials (lmaxx) =  3

     Subspace diagonalization in iterative solution of the eigenvalue problem:
     a serial algorithm will be used

     bravais-lattice index     =            4
     lattice parameter (alat)  =      33.6810  a.u.
     unit-cell volume          =   37130.3117 (a.u.)^3
     number of atoms/cell      =           31
     number of atomic types    =            1
     number of electrons       =        93.00
     number of Kohn-Sham states=           56
     kinetic-energy cutoff     =      80.0000  Ry
     charge density cutoff     =     320.0000  Ry
     convergence threshold     =      1.0E-06
     mixing beta               =       0.4000
     number of iterations used =            8  plain     mixing
     Exchange-correlation      = PBE ( 1  4  3  4 0 0)
     nstep                     =          300

     celldm(1)=  33.680967  celldm(2)=   0.000000  celldm(3)=   1.122133
     celldm(4)=   0.000000  celldm(5)=   0.000000  celldm(6)=   0.000000

     crystal axes: (cart. coord. in units of alat)
               a(1) = (   1.000000   0.000000   0.000000 )
               a(2) = (  -0.500000   0.866025   0.000000 )
               a(3) = (   0.000000   0.000000   1.122133 )

     reciprocal axes: (cart. coord. in units 2 pi/alat)
               b(1) = (  1.000000  0.577350  0.000000 )
               b(2) = (  0.000000  1.154701  0.000000 )
               b(3) = (  0.000000  0.000000  0.891160 )

     PseudoPot. # 1 for Al read from file:
     ./Al.upf
     MD5 check sum: 4974d48a734c9d7d1eb6780a1419d19d
     Pseudo is Norm-conserving + core correction, Zval =  3.0
     Generated using ONCVPSP code by D. R. Hamann
     Using radial grid of 1876 points,  6 beta functions with:
                l(1) =   0
                l(2) =   0
                l(3) =   1
                l(4) =   1
                l(5) =   2
                l(6) =   2

     atomic species   valence    mass     pseudopotential
        Al             3.00    29.98200     Al( 1.00)

      2 Sym. Ops. (no inversion) found

   Cartesian axes

     site n.     atom                  positions (alat units)
         1           Al  tau(   1) = (  -0.0000000   0.1443393   0.0000000  )
         2           Al  tau(   2) = (   0.1250015   0.0721696   0.0000000  )
         3           Al  tau(   3) = (  -0.1249997   0.3608472   0.0000000  )
         4           Al  tau(   4) = (   0.0000018   0.2886775   0.0000000  )
         5           Al  tau(   5) = (  -0.2499994   0.5773550   0.0000000  )
         6           Al  tau(   6) = (  -0.1249979   0.5051854   0.0000000  )
         7           Al  tau(   7) = (  -0.3749991   0.7938629   0.0000000  )
         8           Al  tau(   8) = (  -0.2499976   0.7216932   0.0000000  )
         9           Al  tau(   9) = (   0.2500011   0.1443403   0.0000000  )
        10           Al  tau(  10) = (   0.3750027   0.0721706   0.0000000  )
        11           Al  tau(  11) = (   0.1250014   0.3608482   0.0000000  )
        12           Al  tau(  12) = (   0.2500030   0.2886785   0.0000000  )
        13           Al  tau(  13) = (   0.0000017   0.5773560   0.0000000  )
        14           Al  tau(  14) = (   0.1250033   0.5051864   0.0000000  )
        15           Al  tau(  15) = (  -0.1249980   0.7938639   0.0000000  )
        16           Al  tau(  16) = (   0.5000023   0.1443413   0.0000000  )
        17           Al  tau(  17) = (   0.6250038   0.0721717   0.0000000  )
        18           Al  tau(  18) = (   0.3750026   0.3608492   0.0000000  )
        19           Al  tau(  19) = (   0.5000041   0.2886795   0.0000000  )
        20           Al  tau(  20) = (   0.2500029   0.5773571   0.0000000  )
        21           Al  tau(  21) = (   0.3750044   0.5051874   0.0000000  )
        22           Al  tau(  22) = (   0.1250032   0.7938649   0.0000000  )
        23           Al  tau(  23) = (   0.2500047   0.7216953   0.0000000  )
        24           Al  tau(  24) = (   0.7500035   0.1443423   0.0000000  )
        25           Al  tau(  25) = (   0.8750050   0.0721727   0.0000000  )
        26           Al  tau(  26) = (   0.6250038   0.3608502   0.0000000  )
        27           Al  tau(  27) = (   0.7500053   0.2886805   0.0000000  )
        28           Al  tau(  28) = (   0.5000041   0.5773581   0.0000000  )
        29           Al  tau(  29) = (   0.6250056   0.5051884   0.0000000  )
        30           Al  tau(  30) = (   0.3750044   0.7938660   0.0000000  )
        31           Al  tau(  31) = (   0.5000059   0.7216963   0.0000000  )

     number of k points=     1  Methfessel-Paxton smearing, width (Ry)=  0.0500
                       cart. coord. in units 2pi/alat
        k(    1) = (   0.0000000   0.0000000   0.0000000), wk =   2.0000000

     Initial potential from superposition of free atoms

     starting charge   92.92414, renormalised to   93.00000

     negative rho (up, down):  9.278E-05 0.000E+00
     Starting wfcs are  124 randomized atomic wfcs

     Self-consistent Calculation

     iteration #  1     ecut=    80.00 Ry     beta= 0.40
     Davidson diagonalization with overlap
     ethr =  1.00E-02,  avg # of iterations =  2.0

     total energy              =    -140.64303849 Ry
     Harris-Foulkes estimate   =    -141.23600931 Ry
     estimated scf accuracy    <       1.54723930 Ry

[...]

     End of self-consistent calculation

          k = 0.0000 0.0000 0.0000 (448403 PWs)   bands (ev):

    -9.9529  -9.4484  -9.4328  -9.4328  -9.4259  -9.4258  -9.1458  -8.4048
    -8.4047  -8.3881  -8.3880  -8.3796  -8.3033  -8.2570  -8.2569  -7.5863
    -6.9325  -6.9324  -6.8233  -6.4865  -6.4772  -6.4772  -6.3700  -6.3699
    -5.4639  -4.8435  -4.8434  -4.8370  -4.7356  -4.7355  -4.4780  -4.4680
    -4.4429  -4.4428  -4.1223  -4.1223  -3.9779  -3.4713  -3.4686  -3.4686
    -3.4576  -3.4575  -3.4018  -3.2744  -3.2743  -3.2223  -3.2073  -2.9743
    -2.9652  -2.9652  -2.9388  -2.5198  -2.5197  -2.4488  -2.4481  -2.4313

     the Fermi energy is    -3.0910 ev

!    total energy              =    -140.93611303 Ry
     Harris-Foulkes estimate   =    -140.93611323 Ry
     estimated scf accuracy    <       0.00000021 Ry

     The total energy is the sum of the following terms:

     one-electron contribution =    -502.03599067 Ry
     hartree contribution      =     259.76298880 Ry
     xc contribution           =     -61.33573723 Ry
     ewald contribution        =     162.75359565 Ry
     smearing contrib. (-TS)   =      -0.08096959 Ry

     convergence has been achieved in  18 iterations

     Forces acting on atoms (cartesian axes, Ry/au):

     atom    1 type  1   force =     0.00001531    0.00000865    0.00000000
     atom    2 type  1   force =    -0.00186746    0.00110024    0.00000000
     atom    3 type  1   force =    -0.00156980    0.00520502    0.00000000
     atom    4 type  1   force =     0.00000303   -0.00215299    0.00000000
     atom    5 type  1   force =     0.00109446    0.00062855    0.00000000
     atom    6 type  1   force =    -0.00316987   -0.00112989    0.00000000
     atom    7 type  1   force =     0.00370935   -0.00398035    0.00000000
     atom    8 type  1   force =    -0.00255606   -0.00218550    0.00000000
     atom    9 type  1   force =     0.00528784   -0.00119854    0.00000000
     atom   10 type  1   force =     0.00062387    0.00332174    0.00000000
     atom   11 type  1   force =     0.00160163    0.00518704    0.00000000
     atom   12 type  1   force =    -0.00205740   -0.00118587    0.00000000
     atom   13 type  1   force =     0.00003254    0.01512924    0.00000000
     atom   14 type  1   force =     0.00316417   -0.00109769    0.00000000
     atom   15 type  1   force =     0.01311898   -0.00758273    0.00000000
     atom   16 type  1   force =     0.00000163   -0.00127215    0.00000000
     atom   17 type  1   force =    -0.00061477    0.00331207    0.00000000
     atom   18 type  1   force =    -0.00045306   -0.00025813    0.00000000
     atom   19 type  1   force =     0.00001706    0.00126853    0.00000000
     atom   20 type  1   force =    -0.00112590    0.00063346    0.00000000
     atom   21 type  1   force =     0.00110268   -0.00062773    0.00000000
     atom   22 type  1   force =    -0.01308856   -0.00758987    0.00000000
     atom   23 type  1   force =     0.00252876   -0.00218133    0.00000000
     atom   24 type  1   force =    -0.00530099   -0.00122478    0.00000000
     atom   25 type  1   force =     0.00186430    0.00109516    0.00000000
     atom   26 type  1   force =     0.00044994   -0.00027673    0.00000000
     atom   27 type  1   force =     0.00201118   -0.00117528    0.00000000
     atom   28 type  1   force =    -0.00001183    0.00052616    0.00000000
     atom   29 type  1   force =    -0.00109405   -0.00063374    0.00000000
     atom   30 type  1   force =    -0.00369968   -0.00400477    0.00000000
     atom   31 type  1   force =    -0.00001730    0.00234220    0.00000000

     Total force =     0.031203     Total SCF correction =     0.000369

     Computing stress (Cartesian axis) and pressure

          total   stress  (Ry/bohr**3)                   (kbar)     P=   -0.57
  -0.00000579  -0.00000000   0.00000000         -0.85     -0.00      0.00
  -0.00000000  -0.00000578   0.00000000         -0.00     -0.85      0.00
   0.00000000   0.00000000   0.00000000          0.00      0.00      0.00

     BFGS Geometry Optimization

     number of scf cycles    =   1
     number of bfgs steps    =   0

     enthalpy new            =    -140.9361130348 Ry

     new trust radius        =       0.0151527404 bohr
     new conv_thr            =       0.0000010000 Ry

     new unit-cell volume =  37119.57197 a.u.^3 (  5500.55299 Ang^3 )
     density =      0.28059 g/cm^3

CELL_PARAMETERS (alat= 33.68096681)
   0.999855184  -0.000000027   0.000000000
  -0.499927615   0.865900321   0.000000000
   0.000000000   0.000000000   1.122132950

ATOMIC_POSITIONS (angstrom)
Al       0.000007444   2.572220837   0.000000000
Al       2.226615993   1.286689699   0.000000000
Al      -2.228403349   6.433275998   0.000000000
Al       0.000033559   5.143274169   0.000000000
Al      -4.454565802  10.289160335   0.000000000
Al      -2.229217340   9.002121245   0.000000000
Al      -6.680754371  14.145027515   0.000000000
Al      -4.456464683  12.859868473   0.000000000
Al       4.457972663   2.571600185   0.000000000
Al       6.683109678   1.287883173   0.000000000
Al       2.228450180   6.433284553   0.000000000
Al       4.454118905   5.143803947   0.000000000
Al       0.000047861  10.296850734   0.000000000
Al       2.229309527   9.002156353   0.000000000
Al      -2.220600207  14.143139567   0.000000000
Al       8.910351254   2.571579312   0.000000000
Al      11.137629837   1.287896124   0.000000000
Al       6.682538563   6.430421581   0.000000000
[...]

     WARNING: bfgs curvature condition failed, Theta= 0.855
     new trust radius        =       0.0227258217 bohr
     new conv_thr            =       0.0000010000 Ry

[...]

     iteration # 11     ecut=    80.00 Ry     beta= 0.40
     Davidson diagonalization with overlap
     c_bands:  1 eigenvalues not converged
     ethr =  1.65E-09,  avg # of iterations = 20.0

[...]

     Writing output data file 16al_planar_2x2_vcr.save/
     NEW-OLD atomic charge density approx. for the potential

[...]

     Writing output data file 16al_planar_2x2_vcr.save/
     NEW-OLD atomic charge density approx. for the potential
     Check: negative starting charge=   -0.000121

[...]

     Writing output data file 16al_planar_2x2_vcr.save/
     Check: negative starting charge=   -0.000121
     NEW-OLD atomic charge density approx. for the potential
     Check: negative starting charge=   -0.000133

[...]

     WARNING: bfgs curvature condition failed, Theta= 0.378
     new trust radius        =       0.8000000000 bohr
     new conv_thr            =       0.0000010000 Ry

[...]

     CASE: enthalpy_new > enthalpy_old

[...]

     iteration #  1     ecut=    80.00 Ry     beta= 0.40
     Davidson diagonalization with overlap
     c_bands:  1 eigenvalues not converged
     ethr =  1.00E-06,  avg # of iterations = 20.0

[...]

     Total force =     0.000518     Total SCF correction =     0.000060
     SCF correction compared to forces is large: reduce conv_thr to get better values

[...]

     Total force =     0.000371     Total SCF correction =     0.000031

[...]

     negative rho (up, down):  2.586E-08 0.000E+00
     extrapolated charge   92.99931, renormalised to   93.00000

[...]

     Writing output data file 16al_planar_2x2_vcr.save/
     Check: negative starting charge=   -0.000131
     NEW-OLD atomic charge density approx. for the potential
     Check: negative starting charge=   -0.000131
     extrapolated charge   92.99967, renormalised to   93.00000

[...]

     Writing output data file 16al_planar_2x2_vcr.save/
     Check: negative starting charge=   -0.000131
     NEW-OLD atomic charge density approx. for the potential
     Check: negative starting charge=   -0.000131
     extrapolated charge   93.00003, renormalised to   93.00000

[...]

     small trust_radius: resetting bfgs history

[...]

     number of scf cycles    = 168
     number of bfgs steps    = 166

     enthalpy old            =    -142.2701674481 Ry
     enthalpy new            =    -142.2701674532 Ry

     CASE: enthalpy_new < enthalpy_old

     WARNING: bfgs curvature condition failed, Theta= 0.930
     Message from routine bfgs:
     history already reset at previous step: stopping
     small trust_radius: resetting bfgs history

     new trust radius        =       0.0000234735 bohr
     new conv_thr            =       0.0000000100 Ry

     new unit-cell volume =  26092.82645 a.u.^3 (  3866.55791 Ang^3 )
     density =      0.39916 g/cm^3

[...]

ATOMIC_POSITIONS (angstrom)
Al       1.205055733   1.739261320   0.000000000
Al       3.856001279   1.321588886   0.000000000
Al      -2.409715887   4.661294459   0.000000000
Al       0.241150375   4.243616468   0.000000000
Al      -3.373566675   7.165725433   0.000000000
Al      -0.722713050   6.748021730   0.000000000
Al      -5.300977660  12.174619140   0.000000000
Al      -4.337313549   9.670213530   0.000000000
Al       5.543043088   3.408385857   0.000000000
Al       6.506892398   0.903914415   0.000000000
Al       1.928164398   6.330321734   0.000000000
Al       2.892123412   3.825946648   0.000000000
Al      -1.686493736   9.252467276   0.000000000
Al       0.964416983   8.834800299   0.000000000
Al      -2.650107646  11.756914293   0.000000000
Al       8.193752059   2.990971904   0.000000000
Al       9.157647925   0.486459954   0.000000000
Al       4.579035738   5.912833571   0.000000000
Al       7.229809024   5.495467256   0.000000000
Al       3.615228337   8.417214475   0.000000000
Al       6.265992455   7.999883077   0.000000000
Al       0.000746610  11.339161418   0.000000000
Al       2.651598714  10.921707047   0.000000000
Al      10.844491875   2.573593040   0.000000000
Al      11.808372670   0.069079262   0.000000000
Al       9.880546449   5.078050466   0.000000000
Al      13.495211226   2.156110403   0.000000000
Al       7.952976890  10.087004613   0.000000000
Al       8.916741204   7.582556082   0.000000000
Al       5.302286815  10.504300744   0.000000000
Al       6.989235052  12.591446517   0.000000000

     Writing output data file 16al_planar_2x2_vcr.save/
     Check: negative starting charge=   -0.000131
     NEW-OLD atomic charge density approx. for the potential
     Check: negative starting charge=   -0.000131

[...]

     Threshold (ethr) on eigenvalues was too large:
     Diagonalizing with lowered threshold

     Davidson diagonalization with overlap
     ethr =  2.14E-10,  avg # of iterations =  2.0

[...]

     bfgs converged in 169 scf cycles and 167 bfgs steps
     (criteria: energy <  1.0E-05 Ry, force <  1.0E-04Ry/Bohr, cell <  5.0E-05kbar)

     End of BFGS Geometry Optimization

     Final enthalpy =    -142.2701674564 Ry
Begin final coordinates
     new unit-cell volume =  26092.82645 a.u.^3 (  3866.55791 Ang^3 )
     density =      0.39916 g/cm^3

CELL_PARAMETERS (alat= 33.68096681)
   0.838294409  -0.000042969   0.000000000
  -0.419111797   0.726004719   0.000000000
   0.000000000   0.000000000   1.122132950

ATOMIC_POSITIONS (angstrom)
Al       1.205055733   1.739261320   0.000000000
Al       3.856001279   1.321588886   0.000000000
Al      -2.409715887   4.661294459   0.000000000
Al       0.241150375   4.243616468   0.000000000
Al      -3.373566675   7.165725433   0.000000000
Al      -0.722713050   6.748021730   0.000000000
Al      -5.300977660  12.174619140   0.000000000
Al      -4.337313549   9.670213530   0.000000000
Al       5.543043088   3.408385857   0.000000000
Al       6.506892398   0.903914415   0.000000000
Al       1.928164398   6.330321734   0.000000000
Al       2.892123412   3.825946648   0.000000000
Al      -1.686493736   9.252467276   0.000000000
Al       0.964416983   8.834800299   0.000000000
Al      -2.650107646  11.756914293   0.000000000
Al       8.193752059   2.990971904   0.000000000
Al       9.157647925   0.486459954   0.000000000
Al       4.579035738   5.912833571   0.000000000
Al       7.229809024   5.495467256   0.000000000
Al       3.615228337   8.417214475   0.000000000
Al       6.265992455   7.999883077   0.000000000
Al       0.000746610  11.339161418   0.000000000
Al       2.651598714  10.921707047   0.000000000
Al      10.844491875   2.573593040   0.000000000
Al      11.808372670   0.069079262   0.000000000
Al       9.880546449   5.078050466   0.000000000
Al      13.495211226   2.156110403   0.000000000
Al       7.952976890  10.087004613   0.000000000
Al       8.916741204   7.582556082   0.000000000
Al       5.302286815  10.504300744   0.000000000
Al       6.989235052  12.591446517   0.000000000
End final coordinates

     Writing output data file 16al_planar_2x2_vcr.save/

     A final scf calculation at the relaxed structure.
     The G-vectors are recalculated for the final unit cell
     Results may differ from those at the preceding step.

     bravais-lattice index     =            4
     lattice parameter (alat)  =      33.6810  a.u.
     unit-cell volume          =   26092.8264 (a.u.)^3
     number of atoms/cell      =           31
     number of atomic types    =            1
     number of electrons       =        93.00
     number of Kohn-Sham states=           56
     kinetic-energy cutoff     =      80.0000  Ry
     charge density cutoff     =     320.0000  Ry
     convergence threshold     =      1.0E-08
     mixing beta               =       0.4000
     number of iterations used =            8  plain     mixing
     Exchange-correlation      = PBE ( 1  4  3  4 0 0)

     celldm(1)=  33.680967  celldm(2)=   0.000000  celldm(3)=   1.122133
     celldm(4)=   0.000000  celldm(5)=   0.000000  celldm(6)=   0.000000

     crystal axes: (cart. coord. in units of alat)
               a(1) = (   0.838294  -0.000043   0.000000 )
               a(2) = (  -0.419112   0.726005   0.000000 )
               a(3) = (   0.000000   0.000000   1.122133 )

     reciprocal axes: (cart. coord. in units 2 pi/alat)
               b(1) = (  1.192934  0.688663  0.000000 )
               b(2) = (  0.000071  1.377442  0.000000 )
               b(3) = (  0.000000  0.000000  0.891160 )

     PseudoPot. # 1 for Al read from file:
     ./Al.upf
     MD5 check sum: 4974d48a734c9d7d1eb6780a1419d19d
     Pseudo is Norm-conserving + core correction, Zval =  3.0
     Generated using ONCVPSP code by D. R. Hamann
     Using radial grid of 1876 points,  6 beta functions with:
                l(1) =   0
                l(2) =   0
                l(3) =   1
                l(4) =   1
                l(5) =   2
                l(6) =   2

     atomic species   valence    mass     pseudopotential
        Al             3.00    29.98200     Al( 1.00)

      2 Sym. Ops. (no inversion) found

   Cartesian axes

     site n.     atom                  positions (alat units)
         1           Al  tau(   1) = (   0.0676116   0.0975841   0.0000000  )
         2           Al  tau(   2) = (   0.2163473   0.0741499   0.0000000  )
         3           Al  tau(   3) = (  -0.1352011   0.2615296   0.0000000  )
         4           Al  tau(   4) = (   0.0135301   0.2380951   0.0000000  )
         5           Al  tau(   5) = (  -0.1892795   0.4020448   0.0000000  )
         6           Al  tau(   6) = (  -0.0405490   0.3786089   0.0000000  )
         7           Al  tau(   7) = (  -0.2974201   0.6830771   0.0000000  )
         8           Al  tau(   8) = (  -0.2433521   0.5425633   0.0000000  )
         9           Al  tau(   9) = (   0.3110016   0.1912331   0.0000000  )
        10           Al  tau(  10) = (   0.3650799   0.0507156   0.0000000  )
        11           Al  tau(  11) = (   0.1081828   0.3551731   0.0000000  )
        12           Al  tau(  12) = (   0.1622673   0.2146610   0.0000000  )
        13           Al  tau(  13) = (  -0.0946235   0.5191249   0.0000000  )
        14           Al  tau(  14) = (   0.0541102   0.4956910   0.0000000  )
        15           Al  tau(  15) = (  -0.1486887   0.6596410   0.0000000  )
        16           Al  tau(  16) = (   0.4597240   0.1678134   0.0000000  )
        17           Al  tau(  17) = (   0.5138049   0.0272936   0.0000000  )
        18           Al  tau(  18) = (   0.2569143   0.3317493   0.0000000  )
        19           Al  tau(  19) = (   0.4056403   0.3083322   0.0000000  )
        20           Al  tau(  20) = (   0.2028383   0.4722617   0.0000000  )
        21           Al  tau(  21) = (   0.3515638   0.4488466   0.0000000  )
        22           Al  tau(  22) = (   0.0000419   0.6362023   0.0000000  )
        23           Al  tau(  23) = (   0.1487723   0.6127804   0.0000000  )
        24           Al  tau(  24) = (   0.6084481   0.1443957   0.0000000  )
        25           Al  tau(  25) = (   0.6625282   0.0038758   0.0000000  )
        26           Al  tau(  26) = (   0.5543643   0.2849124   0.0000000  )
        27           Al  tau(  27) = (   0.7571711   0.1209721   0.0000000  )
        28           Al  tau(  28) = (   0.4462149   0.5659480   0.0000000  )
        29           Al  tau(  29) = (   0.5002885   0.4254318   0.0000000  )
        30           Al  tau(  30) = (   0.2974935   0.5893611   0.0000000  )
        31           Al  tau(  31) = (   0.3921425   0.7064639   0.0000000  )

     number of k points=     1  Methfessel-Paxton smearing, width (Ry)=  0.0500
                       cart. coord. in units 2pi/alat
        k(    1) = (   0.0000000   0.0000000   0.0000000), wk =   2.0000000

     Initial potential from superposition of free atoms

     starting charge   92.92414, renormalised to   93.00000

     negative rho (up, down):  7.270E-05 0.000E+00
     Starting wfcs are  124 randomized atomic wfcs

     Self-consistent Calculation

[...]

     negative rho (up, down):  3.608E-08 0.000E+00

[...]

     total energy              =    -142.26988384 Ry
     Harris-Foulkes estimate   =    -142.26988385 Ry
     estimated scf accuracy    <       0.00000001 Ry

     iteration # 17     ecut=    80.00 Ry     beta= 0.40
     Davidson diagonalization with overlap
     ethr =  1.54E-11,  avg # of iterations =  4.0

     End of self-consistent calculation

          k = 0.0000 0.0000 0.0000 (315191 PWs)   bands (ev):

   -11.6237 -10.7478 -10.7478 -10.7477 -10.7477 -10.7477 -10.7477  -9.0217
    -9.0216  -9.0216  -9.0216  -9.0216  -9.0216  -8.1738  -8.1738  -8.1738
    -8.1738  -8.1737  -8.1737  -5.7782  -5.7782  -5.7781  -5.7781  -5.7781
    -5.7781  -5.7076  -5.7076  -5.7076  -5.7075  -5.7075  -5.7075  -4.8692
    -4.0234  -4.0234  -4.0234  -4.0233  -4.0233  -4.0233  -3.7525  -3.7523
    -3.7522  -3.7522  -3.7521  -3.7520  -2.3346  -2.3346  -2.3345  -2.3345
    -2.3345  -2.3345  -1.8113  -1.8112  -1.8111  -1.8111  -1.8110  -1.8110

     the Fermi energy is    -2.4052 ev

!    total energy              =    -142.26988384 Ry
     Harris-Foulkes estimate   =    -142.26988384 Ry
     estimated scf accuracy    <          2.0E-09 Ry

     The total energy is the sum of the following terms:

     one-electron contribution =    -702.58127560 Ry
     hartree contribution      =     360.19369134 Ry
     xc contribution           =     -63.84992756 Ry
     ewald contribution        =     264.01429465 Ry
     smearing contrib. (-TS)   =      -0.04666667 Ry

     convergence has been achieved in  17 iterations

     Forces acting on atoms (cartesian axes, Ry/au):

     atom    1 type  1   force =     0.00000130   -0.00000337    0.00000000
     atom    2 type  1   force =     0.00000212    0.00000288    0.00000000
     atom    3 type  1   force =    -0.00000242   -0.00000523    0.00000000
     atom    4 type  1   force =     0.00000561   -0.00000065    0.00000000
     atom    5 type  1   force =     0.00000121   -0.00000283    0.00000000
     atom    6 type  1   force =     0.00000735    0.00000891    0.00000000
     atom    7 type  1   force =    -0.00000893   -0.00000571    0.00000000
     atom    8 type  1   force =     0.00000513   -0.00001055    0.00000000
     atom    9 type  1   force =    -0.00001790    0.00000660    0.00000000
     atom   10 type  1   force =    -0.00000703    0.00000969    0.00000000
     atom   11 type  1   force =     0.00000647    0.00001434    0.00000000
     atom   12 type  1   force =    -0.00000295    0.00000689    0.00000000
     atom   13 type  1   force =     0.00001360    0.00000034    0.00000000
     atom   14 type  1   force =     0.00000214   -0.00000096    0.00000000
     atom   15 type  1   force =    -0.00000281   -0.00000116    0.00000000
     atom   16 type  1   force =     0.00000131   -0.00000403    0.00000000
     atom   17 type  1   force =    -0.00000483    0.00000215    0.00000000
     atom   18 type  1   force =     0.00000259    0.00000071    0.00000000
     atom   19 type  1   force =     0.00000761   -0.00000217    0.00000000
     atom   20 type  1   force =    -0.00000115    0.00001300    0.00000000
     atom   21 type  1   force =     0.00000310    0.00000253    0.00000000
     atom   22 type  1   force =    -0.00000321    0.00001908    0.00000000
     atom   23 type  1   force =    -0.00001979    0.00000413    0.00000000
     atom   24 type  1   force =    -0.00000722   -0.00001068    0.00000000
     atom   25 type  1   force =    -0.00000123   -0.00000222    0.00000000
     atom   26 type  1   force =     0.00000768   -0.00000269    0.00000000
     atom   27 type  1   force =     0.00001262   -0.00001161    0.00000000
     atom   28 type  1   force =     0.00000631   -0.00000953    0.00000000
     atom   29 type  1   force =     0.00000300   -0.00001158    0.00000000
     atom   30 type  1   force =    -0.00000638    0.00001000    0.00000000
     atom   31 type  1   force =    -0.00000330   -0.00001626    0.00000000

     Total force =     0.000062     Total SCF correction =     0.000048
     SCF correction compared to forces is large: reduce conv_thr to get better values

     Computing stress (Cartesian axis) and pressure

          total   stress  (Ry/bohr**3)                   (kbar)     P=    0.00
   0.00000004   0.00000000   0.00000000          0.01      0.00      0.00
   0.00000000   0.00000004   0.00000000          0.00      0.01      0.00
   0.00000000   0.00000000  -0.00000002          0.00      0.00     -0.00

     Writing output data file 16al_planar_2x2_vcr.save/

     General routines

     Parallel routines

       1h

   This run was terminated on:  21:12:10  26Nov2020

   JOB DONE.