     Program PWSCF v.6.3MaX starts on 26Nov2020 at  9:14:27

     R & G space division:  proc/nbgrp/npool/nimage =       8
     Waiting for input...
     Reading input from standard input

     Current dimensions of program PWSCF are:
     Max number of different atomic species (ntypx) = 10
     Max number of k-points (npk) =  40000
     Max angular momentum in pseudopotentials (lmaxx) =  3

     Subspace diagonalization in iterative solution of the eigenvalue problem:
     a serial algorithm will be used

     bravais-lattice index     =            4
     lattice parameter (alat)  =      33.6810  a.u.
     unit-cell volume          =   37130.3117 (a.u.)^3
     number of atoms/cell      =           31
     number of atomic types    =            1
     number of electrons       =        93.00
     number of Kohn-Sham states=           56
     kinetic-energy cutoff     =      80.0000  Ry
     charge density cutoff     =     320.0000  Ry
     convergence threshold     =      1.0E-06
     mixing beta               =       0.4000
     number of iterations used =            8  plain     mixing
     Exchange-correlation      = PBE ( 1  4  3  4 0 0)
     nstep                     =          300

     celldm(1)=  33.680967  celldm(2)=   0.000000  celldm(3)=   1.122133
     celldm(4)=   0.000000  celldm(5)=   0.000000  celldm(6)=   0.000000

     crystal axes: (cart. coord. in units of alat)
               a(1) = (   1.000000   0.000000   0.000000 )
               a(2) = (  -0.500000   0.866025   0.000000 )
               a(3) = (   0.000000   0.000000   1.122133 )

     reciprocal axes: (cart. coord. in units 2 pi/alat)
               b(1) = (  1.000000  0.577350  0.000000 )
               b(2) = (  0.000000  1.154701  0.000000 )
               b(3) = (  0.000000  0.000000  0.891160 )

     PseudoPot. # 1 for Al read from file:
     ./Al.upf
     MD5 check sum: 4974d48a734c9d7d1eb6780a1419d19d
     Pseudo is Norm-conserving + core correction, Zval =  3.0
     Generated using ONCVPSP code by D. R. Hamann
     Using radial grid of 1876 points,  6 beta functions with:
                l(1) =   0
                l(2) =   0
                l(3) =   1
                l(4) =   1
                l(5) =   2
                l(6) =   2

     atomic species   valence    mass     pseudopotential
        Al             3.00    29.98200     Al( 1.00)

      4 Sym. Ops. (no inversion) found ( 2 have fractional translation)

   Cartesian axes

     site n.     atom                  positions (alat units)
         1           Al  tau(   1) = (  -0.0000000   0.1443393   0.0000000  )
         2           Al  tau(   2) = (   0.1250015   0.0721696   0.0000000  )
         3           Al  tau(   3) = (  -0.1249997   0.3608472   0.0000000  )
         4           Al  tau(   4) = (   0.0000018   0.2886775   0.0000000  )
         5           Al  tau(   5) = (  -0.2499994   0.5773550   0.0000000  )
         6           Al  tau(   6) = (  -0.1249979   0.5051854   0.0000000  )
         7           Al  tau(   7) = (  -0.3749991   0.7938629   0.0000000  )
         8           Al  tau(   8) = (  -0.2499976   0.7216932   0.0000000  )
         9           Al  tau(   9) = (   0.2500011   0.1443403   0.0000000  )
        10           Al  tau(  10) = (   0.3750027   0.0721706   0.0000000  )
        11           Al  tau(  11) = (   0.1250014   0.3608482   0.0000000  )
        12           Al  tau(  12) = (   0.2500030   0.2886785   0.0000000  )
        13           Al  tau(  13) = (   0.0000017   0.5773560   0.0000000  )
        14           Al  tau(  14) = (   0.1250033   0.5051864   0.0000000  )
        15           Al  tau(  15) = (  -0.1249980   0.7938639   0.0000000  )
        16           Al  tau(  16) = (   0.0000036   0.7216942   0.0000000  )
        17           Al  tau(  17) = (   0.5000023   0.1443413   0.0000000  )
        18           Al  tau(  18) = (   0.6250038   0.0721717   0.0000000  )
        19           Al  tau(  19) = (   0.3750026   0.3608492   0.0000000  )
        20           Al  tau(  20) = (   0.5000041   0.2886795   0.0000000  )
        21           Al  tau(  21) = (   0.2500029   0.5773571   0.0000000  )
        22           Al  tau(  22) = (   0.3750044   0.5051874   0.0000000  )
        23           Al  tau(  23) = (   0.1250032   0.7938649   0.0000000  )
        24           Al  tau(  24) = (   0.2500047   0.7216953   0.0000000  )
        25           Al  tau(  25) = (   0.7500035   0.1443423   0.0000000  )
        26           Al  tau(  26) = (   0.8750050   0.0721727   0.0000000  )
        27           Al  tau(  27) = (   0.7500053   0.2886805   0.0000000  )
        28           Al  tau(  28) = (   0.5000041   0.5773581   0.0000000  )
        29           Al  tau(  29) = (   0.6250056   0.5051884   0.0000000  )
        30           Al  tau(  30) = (   0.3750044   0.7938660   0.0000000  )
        31           Al  tau(  31) = (   0.5000059   0.7216963   0.0000000  )

     number of k points=     1  Methfessel-Paxton smearing, width (Ry)=  0.0500
                       cart. coord. in units 2pi/alat
        k(    1) = (   0.0000000   0.0000000   0.0000000), wk =   2.0000000

     Initial potential from superposition of free atoms

     starting charge   92.92414, renormalised to   93.00000

     negative rho (up, down):  9.278E-05 0.000E+00
     Starting wfcs are  124 randomized atomic wfcs

     Self-consistent Calculation

     iteration #  1     ecut=    80.00 Ry     beta= 0.40
     Davidson diagonalization with overlap
     ethr =  1.00E-02,  avg # of iterations =  2.0

     negative rho (up, down):  7.334E-07 0.000E+00

     total energy              =    -140.64163439 Ry
     Harris-Foulkes estimate   =    -141.23604155 Ry
     estimated scf accuracy    <       1.54959149 Ry

[...]

     End of self-consistent calculation

          k = 0.0000 0.0000 0.0000 (448403 PWs)   bands (ev):

    -9.9528  -9.4482  -9.4332  -9.4328  -9.4260  -9.4255  -9.1459  -8.4049
    -8.4047  -8.3881  -8.3880  -8.3797  -8.3033  -8.2569  -8.2568  -7.5865
    -6.9324  -6.9323  -6.8232  -6.4866  -6.4772  -6.4771  -6.3701  -6.3700
    -5.4640  -4.8435  -4.8432  -4.8369  -4.7357  -4.7355  -4.4780  -4.4680
    -4.4428  -4.4427  -4.1227  -4.1222  -3.9778  -3.4711  -3.4689  -3.4686
    -3.4577  -3.4574  -3.4017  -3.2744  -3.2743  -3.2224  -3.2074  -2.9743
    -2.9653  -2.9651  -2.9389  -2.5198  -2.5195  -2.4501  -2.4484  -2.4314

     the Fermi energy is    -3.0910 ev

!    total energy              =    -140.93610871 Ry
     Harris-Foulkes estimate   =    -140.93610898 Ry
     estimated scf accuracy    <       0.00000030 Ry

     The total energy is the sum of the following terms:

     one-electron contribution =    -502.03539335 Ry
     hartree contribution      =     259.76236923 Ry
     xc contribution           =     -61.33567354 Ry
     ewald contribution        =     162.75359565 Ry
     smearing contrib. (-TS)   =      -0.08100671 Ry

     convergence has been achieved in  17 iterations

[...]

     Forces acting on atoms (cartesian axes, Ry/au):

     atom    1 type  1   force =     0.00185844   -0.00106310    0.00000000
     atom    2 type  1   force =    -0.00000031   -0.00000018    0.00000000
     atom    3 type  1   force =     0.00258201    0.00221180    0.00000000
     atom    4 type  1   force =    -0.00370794    0.00394796    0.00000000
     atom    5 type  1   force =     0.00320648    0.00113019    0.00000000
     atom    6 type  1   force =    -0.00110013   -0.00063516    0.00000000
     atom    7 type  1   force =     0.00000855    0.00214100    0.00000000
     atom    8 type  1   force =     0.00156507   -0.00518515    0.00000000
     atom    9 type  1   force =    -0.00186403   -0.00107620    0.00000000
     atom   10 type  1   force =     0.00530695    0.00127150    0.00000000
     atom   11 type  1   force =    -0.00002635   -0.00230389    0.00000000
     atom   12 type  1   force =     0.00375463    0.00396020    0.00000000
     atom   13 type  1   force =     0.00109835    0.00063413    0.00000000
     atom   14 type  1   force =     0.00003808   -0.00052115    0.00000000
     atom   15 type  1   force =    -0.00200840    0.00112912    0.00000000
     atom   16 type  1   force =    -0.00043229    0.00029355    0.00000000
     atom   17 type  1   force =     0.00060897   -0.00329589    0.00000000
     atom   18 type  1   force =    -0.00000274    0.00133299    0.00000000
     atom   19 type  1   force =    -0.00254984    0.00217533    0.00000000
     atom   20 type  1   force =     0.01310002    0.00756330    0.00000000
     atom   21 type  1   force =    -0.00118735    0.00062257    0.00000000
     atom   22 type  1   force =     0.00115303   -0.00066887    0.00000000
     atom   23 type  1   force =    -0.00005451   -0.00133956    0.00000000
     atom   24 type  1   force =     0.00045640    0.00026350    0.00000000
     atom   25 type  1   force =    -0.00062686   -0.00327415    0.00000000
     atom   26 type  1   force =    -0.00528010    0.00123743    0.00000000
     atom   27 type  1   force =    -0.01315354    0.00752811    0.00000000
     atom   28 type  1   force =    -0.00314893    0.00109420    0.00000000
     atom   29 type  1   force =    -0.00005724   -0.01515536    0.00000000
     atom   30 type  1   force =     0.00203200    0.00117317    0.00000000
     atom   31 type  1   force =    -0.00156840   -0.00519141    0.00000000

     Total force =     0.031212     Total SCF correction =     0.000446

     Computing stress (Cartesian axis) and pressure

     negative rho (up, down):  1.372E-04 0.000E+00
          total   stress  (Ry/bohr**3)                   (kbar)     P=   -0.57
  -0.00000580  -0.00000003   0.00000000         -0.85     -0.00      0.00
  -0.00000003  -0.00000577   0.00000000         -0.00     -0.85      0.00
   0.00000000   0.00000000  -0.00000000          0.00      0.00     -0.00

     BFGS Geometry Optimization

     number of scf cycles    =   1
     number of bfgs steps    =   0

     enthalpy new            =    -140.9361087145 Ry

     new trust radius        =       0.0151554670 bohr
     new conv_thr            =       0.0000010000 Ry

     new unit-cell volume =  37119.57198 a.u.^3 (  5500.55299 Ang^3 )
     density =      0.28059 g/cm^3

CELL_PARAMETERS (alat= 33.68096681)
   0.999854923  -0.000000769   0.000000000
  -0.499928128   0.865900917   0.000000000
   0.000000000   0.000000000   1.122132950

ATOMIC_POSITIONS (angstrom)
Al       0.000980737   2.571654446   0.000000000
Al       2.227602365   1.286106150   0.000000000
Al      -2.226210815   6.431695608   0.000000000
Al      -0.001933738   5.146503531   0.000000000
Al      -4.453454804  10.289431742   0.000000000
Al      -2.228128334   9.002387009   0.000000000
Al      -6.682721225  14.148274978   0.000000000
Al      -4.454292573  12.858288014   0.000000000
Al       4.454185537   2.571662281   0.000000000
Al       6.685584801   1.286793763   0.000000000
Al       2.227583461   6.429321120   0.000000000
Al       4.457189072   5.146524769   0.000000000
Al       0.000604146  10.289184044   0.000000000
Al       2.227648250   9.002462097   0.000000000
Al      -2.228614034  14.147754358   0.000000000
[...]
Al       8.909572592  12.858329003   0.000000000

     Writing output data file 27al_planar_2x2_vcr.save/
     NEW-OLD atomic charge density approx. for the potential

     negative rho (up, down):  1.372E-04 0.000E+00
     extrapolated charge   92.97311, renormalised to   93.00000

[...]

     enthalpy old            =    -140.9361087145 Ry
     enthalpy new            =    -140.9371117159 Ry

     CASE: enthalpy_new < enthalpy_old

     WARNING: bfgs curvature condition failed, Theta= 0.854
     new trust radius        =       0.0227299224 bohr
     new conv_thr            =       0.0000010000 Ry

[...]

     Threshold (ethr) on eigenvalues was too large:
     Diagonalizing with lowered threshold

     Davidson diagonalization with overlap
     ethr =  8.91E-08,  avg # of iterations =  4.0

[...]

     Writing output data file 27al_planar_2x2_vcr.save/
     NEW-OLD atomic charge density approx. for the potential

[...]

     Writing output data file 27al_planar_2x2_vcr.save/
     NEW-OLD atomic charge density approx. for the potential
     Check: negative starting charge=   -0.000121

[...]

     Writing output data file 27al_planar_2x2_vcr.save/
     Check: negative starting charge=   -0.000121
     NEW-OLD atomic charge density approx. for the potential
     Check: negative starting charge=   -0.000133

[...]

     iteration #  1     ecut=    80.00 Ry     beta= 0.40
     Davidson diagonalization with overlap
     c_bands:  1 eigenvalues not converged
     ethr =  1.00E-06,  avg # of iterations = 20.0

[...]

     WARNING: bfgs curvature condition failed, Theta= 0.061
     new trust radius        =       0.8000000000 bohr
     new conv_thr            =       0.0000010000 Ry

[...]

     Total force =     0.000560     Total SCF correction =     0.000040

[...]

     Total force =     0.000474     Total SCF correction =     0.000049
     SCF correction compared to forces is large: reduce conv_thr to get better values

[...]

     small trust_radius: resetting bfgs history

[...]

     number of scf cycles    = 148
     number of bfgs steps    = 147

     enthalpy old            =    -141.9736192341 Ry
     enthalpy new            =    -141.9736192354 Ry

     CASE: enthalpy_new < enthalpy_old

     Message from routine bfgs:
     history already reset at previous step: stopping
     small trust_radius: resetting bfgs history

     new trust radius        =       0.0000109900 bohr
     new conv_thr            =       0.0000000100 Ry

     new unit-cell volume =  27359.98936 a.u.^3 (  4054.33208 Ang^3 )
     density =      0.38067 g/cm^3

[...]

ATOMIC_POSITIONS (angstrom)
Al      -0.493940313   2.676701965   0.000000000
Al       2.414099514   1.393780428   0.000000000
Al      -3.025035328   5.473149916   0.000000000
Al      -0.404314609   5.376916140   0.000000000
Al      -4.370578779   7.803730987   0.000000000
Al      -1.790906602   7.739373276   0.000000000
Al      -5.526799001  11.393963271   0.000000000
Al      -3.143531264  10.121441459   0.000000000
Al       4.634583910   2.675809872   0.000000000
Al       6.646442637   1.009909932   0.000000000
Al       1.934377023   3.949223270   0.000000000
Al       4.197829656   5.251063472   0.000000000
Al       0.406737335   9.008215774   0.000000000
Al       1.898907747   6.614180649   0.000000000
Al      -3.210631611  12.860702528   0.000000000
Al      -0.920444643  11.497473684   0.000000000
Al       8.895539496   2.109104063   0.000000000
Al      10.667471109   0.365895760   0.000000000
Al       6.274280259   6.649289691   0.000000000
Al       7.008544780   4.046415668   0.000000000
Al       3.019009700   8.952061522   0.000000000
Al       5.650611442   9.055414498   0.000000000
Al       1.664242691  11.298618263   0.000000000
Al       4.336241811  11.276915089   0.000000000
Al      12.109758340   2.868246786   0.000000000
Al      13.197157462   0.488855896   0.000000000
Al       9.983898267   4.349704961   0.000000000
Al       8.538826746   9.053344635   0.000000000
Al       8.758877939   6.471533859   0.000000000
Al       8.065771948  13.430192497   0.000000000
Al       7.021941403  11.184738209   0.000000000

     Writing output data file 27al_planar_2x2_vcr.save/
     Check: negative starting charge=   -0.000133
     NEW-OLD atomic charge density approx. for the potential
     Check: negative starting charge=   -0.000133

     negative rho (up, down):  3.156E-05 0.000E+00
     extrapolated charge   93.00001, renormalised to   93.00000

[...]

     Threshold (ethr) on eigenvalues was too large:
     Diagonalizing with lowered threshold

     Davidson diagonalization with overlap
     ethr =  3.49E-10,  avg # of iterations =  5.0

[...]

     bfgs converged in 149 scf cycles and 148 bfgs steps
     (criteria: energy <  1.0E-05 Ry, force <  1.0E-04Ry/Bohr, cell <  5.0E-05kbar)

     End of BFGS Geometry Optimization

     Final enthalpy =    -141.9736192393 Ry
Begin final coordinates
     new unit-cell volume =  27359.98936 a.u.^3 (  4054.33208 Ang^3 )
     density =      0.38067 g/cm^3

CELL_PARAMETERS (alat= 33.68096681)
   0.861348153   0.005058391   0.000000000
  -0.426293382   0.738361796   0.000000000
   0.000000000   0.000000000   1.122132950

ATOMIC_POSITIONS (angstrom)
Al      -0.493940313   2.676701965   0.000000000
Al       2.414099514   1.393780428   0.000000000
Al      -3.025035328   5.473149916   0.000000000
Al      -0.404314609   5.376916140   0.000000000
Al      -4.370578779   7.803730987   0.000000000
Al      -1.790906602   7.739373276   0.000000000
Al      -5.526799001  11.393963271   0.000000000
Al      -3.143531264  10.121441459   0.000000000
Al       4.634583910   2.675809872   0.000000000
Al       6.646442637   1.009909932   0.000000000
Al       1.934377023   3.949223270   0.000000000
Al       4.197829656   5.251063472   0.000000000
Al       0.406737335   9.008215774   0.000000000
Al       1.898907747   6.614180649   0.000000000
Al      -3.210631611  12.860702528   0.000000000
Al      -0.920444643  11.497473684   0.000000000
Al       8.895539496   2.109104063   0.000000000
Al      10.667471109   0.365895760   0.000000000
Al       6.274280259   6.649289691   0.000000000
Al       7.008544780   4.046415668   0.000000000
Al       3.019009700   8.952061522   0.000000000
Al       5.650611442   9.055414498   0.000000000
Al       1.664242691  11.298618263   0.000000000
Al       4.336241811  11.276915089   0.000000000
Al      12.109758340   2.868246786   0.000000000
Al      13.197157462   0.488855896   0.000000000
Al       9.983898267   4.349704961   0.000000000
Al       8.538826746   9.053344635   0.000000000
Al       8.758877939   6.471533859   0.000000000
Al       8.065771948  13.430192497   0.000000000
Al       7.021941403  11.184738209   0.000000000
End final coordinates

     Writing output data file 27al_planar_2x2_vcr.save/

     A final scf calculation at the relaxed structure.
     The G-vectors are recalculated for the final unit cell
     Results may differ from those at the preceding step.

     bravais-lattice index     =            4
     lattice parameter (alat)  =      33.6810  a.u.
     unit-cell volume          =   27359.9894 (a.u.)^3
     number of atoms/cell      =           31
     number of atomic types    =            1
     number of electrons       =        93.00
     number of Kohn-Sham states=           56
     kinetic-energy cutoff     =      80.0000  Ry
     charge density cutoff     =     320.0000  Ry
     convergence threshold     =      1.0E-08
     mixing beta               =       0.4000
     number of iterations used =            8  plain     mixing
     Exchange-correlation      = PBE ( 1  4  3  4 0 0)

     celldm(1)=  33.680967  celldm(2)=   0.000000  celldm(3)=   1.122133
     celldm(4)=   0.000000  celldm(5)=   0.000000  celldm(6)=   0.000000

     crystal axes: (cart. coord. in units of alat)
               a(1) = (   0.861348   0.005058   0.000000 )
               a(2) = (  -0.426293   0.738362   0.000000 )
               a(3) = (   0.000000   0.000000   1.122133 )

     reciprocal axes: (cart. coord. in units 2 pi/alat)
               b(1) = (  1.157048  0.668022  0.000000 )
               b(2) = ( -0.007927  1.349773  0.000000 )
               b(3) = (  0.000000  0.000000  0.891160 )

     PseudoPot. # 1 for Al read from file:
     ./Al.upf
     MD5 check sum: 4974d48a734c9d7d1eb6780a1419d19d
     Pseudo is Norm-conserving + core correction, Zval =  3.0
     Generated using ONCVPSP code by D. R. Hamann
     Using radial grid of 1876 points,  6 beta functions with:
                l(1) =   0
                l(2) =   0
                l(3) =   1
                l(4) =   1
                l(5) =   2
                l(6) =   2

     atomic species   valence    mass     pseudopotential
        Al             3.00    29.98200     Al( 1.00)

      4 Sym. Ops. (no inversion) found ( 2 have fractional translation)

   Cartesian axes

     site n.     atom                  positions (alat units)
         1           Al  tau(   1) = (  -0.0277133   0.1501808   0.0000000  )
         2           Al  tau(   2) = (   0.1354470   0.0782003   0.0000000  )
         3           Al  tau(   3) = (  -0.1697246   0.3070801   0.0000000  )
         4           Al  tau(   4) = (  -0.0226847   0.3016807   0.0000000  )
         5           Al  tau(   5) = (  -0.2452185   0.4378412   0.0000000  )
         6           Al  tau(   6) = (  -0.1004818   0.4342303   0.0000000  )
         7           Al  tau(   7) = (  -0.3100902   0.6392771   0.0000000  )
         8           Al  tau(   8) = (  -0.1763730   0.5678801   0.0000000  )
         9           Al  tau(   9) = (   0.2600310   0.1501307   0.0000000  )
        10           Al  tau(  10) = (   0.3729096   0.0566627   0.0000000  )
        11           Al  tau(  11) = (   0.1085314   0.2215777   0.0000000  )
        12           Al  tau(  12) = (   0.2355261   0.2946196   0.0000000  )
        13           Al  tau(  13) = (   0.0228207   0.5054208   0.0000000  )
        14           Al  tau(  14) = (   0.1065413   0.3710995   0.0000000  )
        15           Al  tau(  15) = (  -0.1801378   0.7215709   0.0000000  )
        16           Al  tau(  16) = (  -0.0516431   0.6450847   0.0000000  )
        17           Al  tau(  17) = (   0.4990989   0.1183348   0.0000000  )
        18           Al  tau(  18) = (   0.5985160   0.0205292   0.0000000  )
        19           Al  tau(  19) = (   0.3520288   0.3730694   0.0000000  )
        20           Al  tau(  20) = (   0.3932260   0.2270308   0.0000000  )
        21           Al  tau(  21) = (   0.1693865   0.5022702   0.0000000  )
        22           Al  tau(  22) = (   0.3170369   0.5080689   0.0000000  )
        23           Al  tau(  23) = (   0.0933751   0.6339276   0.0000000  )
        24           Al  tau(  24) = (   0.2432920   0.6327099   0.0000000  )
        25           Al  tau(  25) = (   0.6794379   0.1609277   0.0000000  )
        26           Al  tau(  26) = (   0.7404483   0.0274281   0.0000000  )
        27           Al  tau(  27) = (   0.5601631   0.2440474   0.0000000  )
        28           Al  tau(  28) = (   0.4790849   0.5079528   0.0000000  )
        29           Al  tau(  29) = (   0.4914313   0.3630961   0.0000000  )
        30           Al  tau(  30) = (   0.4525434   0.7535231   0.0000000  )
        31           Al  tau(  31) = (   0.3939776   0.6275382   0.0000000  )

     number of k points=     1  Methfessel-Paxton smearing, width (Ry)=  0.0500
                       cart. coord. in units 2pi/alat
        k(    1) = (   0.0000000   0.0000000   0.0000000), wk =   2.0000000

     Initial potential from superposition of free atoms

     starting charge   92.92414, renormalised to   93.00000

     negative rho (up, down):  7.322E-05 0.000E+00
     Starting wfcs are  124 randomized atomic wfcs

     Self-consistent Calculation

     iteration #  1     ecut=    80.00 Ry     beta= 0.40
     Davidson diagonalization with overlap
     c_bands:  1 eigenvalues not converged
     ethr =  1.00E-06,  avg # of iterations = 20.0

[...]

     total energy              =    -141.97340241 Ry
     Harris-Foulkes estimate   =    -141.97340241 Ry
     estimated scf accuracy    <       0.00000002 Ry

     iteration # 17     ecut=    80.00 Ry     beta= 0.40
     Davidson diagonalization with overlap
     ethr =  1.62E-11,  avg # of iterations =  6.0

[...]

     End of self-consistent calculation

          k = 0.0000 0.0000 0.0000 (330477 PWs)   bands (ev):

   -11.4587 -10.8344 -10.6798 -10.5837 -10.5365 -10.4469 -10.3902  -9.1876
    -9.0475  -8.9941  -8.8826  -8.8725  -8.6676  -8.2541  -8.1418  -8.1407
    -8.1144  -7.9021  -7.6537  -6.0615  -6.0008  -5.9550  -5.9510  -5.9029
    -5.8267  -5.6763  -5.5429  -5.4643  -5.4249  -5.2845  -5.2166  -4.7784
    -4.4730  -4.3408  -4.1367  -4.1325  -4.0305  -3.9588  -3.9368  -3.8757
    -3.8235  -3.7908  -3.7410  -3.7335  -2.5375  -2.4429  -2.3973  -2.3462
    -2.2950  -2.1898  -2.1816  -2.0756  -1.9454  -1.7870  -1.7060  -1.6152

     the Fermi energy is    -2.4736 ev

!    total energy              =    -141.97340237 Ry
     Harris-Foulkes estimate   =    -141.97340238 Ry
     estimated scf accuracy    <          6.7E-09 Ry

     The total energy is the sum of the following terms:

     one-electron contribution =    -670.66716795 Ry
     hartree contribution      =     344.06111791 Ry
     xc contribution           =     -63.39923111 Ry
     ewald contribution        =     248.08161663 Ry
     smearing contrib. (-TS)   =      -0.04973785 Ry

     convergence has been achieved in  17 iterations

     negative rho (up, down):  3.153E-05 0.000E+00

     Forces acting on atoms (cartesian axes, Ry/au):

     atom    1 type  1   force =    -0.00000028    0.00000231    0.00000000
     atom    2 type  1   force =    -0.00000662   -0.00000382    0.00000000
     atom    3 type  1   force =     0.00000212   -0.00000035    0.00000000
     atom    4 type  1   force =    -0.00000692   -0.00000072    0.00000000
     atom    5 type  1   force =     0.00000076    0.00000201    0.00000000
     atom    6 type  1   force =     0.00000622    0.00000359    0.00000000
     atom    7 type  1   force =     0.00000186   -0.00000140    0.00000000
     atom    8 type  1   force =    -0.00000408   -0.00000564    0.00000000
     atom    9 type  1   force =     0.00000475    0.00000274    0.00000000
     atom   10 type  1   force =     0.00000444    0.00000068    0.00000000
     atom   11 type  1   force =    -0.00001870   -0.00000595    0.00000000
     atom   12 type  1   force =     0.00000280    0.00000350    0.00000000
     atom   13 type  1   force =    -0.00000376   -0.00000217    0.00000000
     atom   14 type  1   force =     0.00000345   -0.00000623    0.00000000
     atom   15 type  1   force =    -0.00001450   -0.00001322    0.00000000
     atom   16 type  1   force =    -0.00000367    0.00000610    0.00000000
     atom   17 type  1   force =     0.00000120    0.00000215    0.00000000
     atom   18 type  1   force =     0.00000056    0.00000952    0.00000000
     atom   19 type  1   force =     0.00000247   -0.00000004    0.00000000
     atom   20 type  1   force =     0.00000507    0.00000293    0.00000000
     atom   21 type  1   force =     0.00000093   -0.00000454    0.00000000
     atom   22 type  1   force =     0.00000853   -0.00000427    0.00000000
     atom   23 type  1   force =    -0.00000347    0.00000307    0.00000000
     atom   24 type  1   force =    -0.00000765   -0.00000442    0.00000000
     atom   25 type  1   force =     0.00000991   -0.00000092    0.00000000
     atom   26 type  1   force =     0.00000486    0.00000177    0.00000000
     atom   27 type  1   force =    -0.00000251    0.00000955    0.00000000
     atom   28 type  1   force =     0.00000416    0.00000904    0.00000000
     atom   29 type  1   force =     0.00000701   -0.00000695    0.00000000
     atom   30 type  1   force =    -0.00000287   -0.00000166    0.00000000
     atom   31 type  1   force =     0.00000396    0.00000332    0.00000000

     Total force =     0.000045     Total SCF correction =     0.000082
     SCF correction compared to forces is large: reduce conv_thr to get better values

     Computing stress (Cartesian axis) and pressure

     negative rho (up, down):  3.153E-05 0.000E+00
          total   stress  (Ry/bohr**3)                   (kbar)     P=    0.00
   0.00000003  -0.00000001   0.00000000          0.00     -0.00      0.00
  -0.00000001   0.00000004   0.00000000         -0.00      0.01      0.00
   0.00000000   0.00000000  -0.00000001          0.00      0.00     -0.00

     Writing output data file 27al_planar_2x2_vcr.save/

     General routines

     Parallel routines

      58h

   This run was terminated on:  23:13: 2  26Nov2020

   JOB DONE.