     Program PWSCF v.6.3MaX starts on 25Nov2020 at 15:57:22

     R & G space division:  proc/nbgrp/npool/nimage =       8
     Waiting for input...
     Reading input from standard input

     Current dimensions of program PWSCF are:
     Max number of different atomic species (ntypx) = 10
     Max number of k-points (npk) =  40000
     Max angular momentum in pseudopotentials (lmaxx) =  3

     Subspace diagonalization in iterative solution of the eigenvalue problem:
     a serial algorithm will be used

     bravais-lattice index     =            4
     lattice parameter (alat)  =      25.2607  a.u.
     unit-cell volume          =   20885.8003 (a.u.)^3
     number of atoms/cell      =           17
     number of atomic types    =            1
     number of electrons       =        51.00
     number of Kohn-Sham states=           31
     kinetic-energy cutoff     =      80.0000  Ry
     charge density cutoff     =     320.0000  Ry
     convergence threshold     =      1.0E-06
     mixing beta               =       0.4000
     number of iterations used =            8  plain     mixing
     Exchange-correlation      = PBE ( 1  4  3  4 0 0)
     nstep                     =          300

     celldm(1)=  25.260725  celldm(2)=   0.000000  celldm(3)=   1.496177
     celldm(4)=   0.000000  celldm(5)=   0.000000  celldm(6)=   0.000000

     crystal axes: (cart. coord. in units of alat)
               a(1) = (   1.000000   0.000000   0.000000 )
               a(2) = (  -0.500000   0.866025   0.000000 )
               a(3) = (   0.000000   0.000000   1.496177 )

     reciprocal axes: (cart. coord. in units 2 pi/alat)
               b(1) = (  1.000000  0.577350  0.000000 )
               b(2) = (  0.000000  1.154701  0.000000 )
               b(3) = (  0.000000  0.000000  0.668370 )

     PseudoPot. # 1 for Al read from file:
     ./Al.upf
     MD5 check sum: 4974d48a734c9d7d1eb6780a1419d19d
     Pseudo is Norm-conserving + core correction, Zval =  3.0
     Generated using ONCVPSP code by D. R. Hamann
     Using radial grid of 1876 points,  6 beta functions with:
                l(1) =   0
                l(2) =   0
                l(3) =   1
                l(4) =   1
                l(5) =   2
                l(6) =   2

     atomic species   valence    mass     pseudopotential
        Al             3.00    29.98200     Al( 1.00)

      2 Sym. Ops. (no inversion) found

   Cartesian axes

     site n.     atom                  positions (alat units)
         1           Al  tau(   1) = (   0.0000000   0.1924524   0.0000000  )
         2           Al  tau(   2) = (   0.1666687   0.0962261   0.0000000  )
         3           Al  tau(   3) = (   0.3333348   0.1924537   0.0000000  )
         4           Al  tau(   4) = (   0.5000036   0.0962275   0.0000000  )
         5           Al  tau(   5) = (  -0.1666663   0.4811295   0.0000000  )
         6           Al  tau(   6) = (   0.0000024   0.3849033   0.0000000  )
         7           Al  tau(   7) = (   0.3333373   0.3849047   0.0000000  )
         8           Al  tau(   8) = (  -0.3333326   0.7698067   0.0000000  )
         9           Al  tau(   9) = (  -0.1666639   0.6735805   0.0000000  )
        10           Al  tau(  10) = (   0.0000023   0.7698081   0.0000000  )
        11           Al  tau(  11) = (   0.1666710   0.6735818   0.0000000  )
        12           Al  tau(  12) = (   0.6666697   0.1924551   0.0000000  )
        13           Al  tau(  13) = (   0.8333384   0.0962289   0.0000000  )
        14           Al  tau(  14) = (   0.5000035   0.4811323   0.0000000  )
        15           Al  tau(  15) = (   0.6666722   0.3849060   0.0000000  )
        16           Al  tau(  16) = (   0.3333372   0.7698094   0.0000000  )
        17           Al  tau(  17) = (   0.5000059   0.6735832   0.0000000  )

     number of k points=     1  Methfessel-Paxton smearing, width (Ry)=  0.0500
                       cart. coord. in units 2pi/alat
        k(    1) = (   0.0000000   0.0000000   0.0000000), wk =   2.0000000

     Initial potential from superposition of free atoms

     starting charge   50.95840, renormalised to   51.00000

     negative rho (up, down):  5.196E-05 0.000E+00
     Starting wfcs are   68 randomized atomic wfcs

     Self-consistent Calculation

     iteration #  1     ecut=    80.00 Ry     beta= 0.40
     Davidson diagonalization with overlap
     ethr =  1.00E-02,  avg # of iterations =  2.0

     total energy              =     -77.03430408 Ry
     Harris-Foulkes estimate   =     -77.31746461 Ry
     estimated scf accuracy    <       0.79341066 Ry

[...]

     End of self-consistent calculation

          k = 0.0000 0.0000 0.0000 (252395 PWs)   bands (ev):

    -9.9964  -9.1543  -9.0980  -9.0979  -9.0597  -9.0596  -8.4087  -7.5382
    -7.4673  -7.4672  -6.7263  -5.8849  -5.8791  -5.8791  -5.6093  -5.6092
    -4.7519  -4.7519  -4.0025  -3.5337  -3.3089  -3.2899  -3.2898  -3.2354
    -3.1475  -3.1133  -3.1133  -3.0989  -3.0988  -2.7511  -2.7510

     the Fermi energy is    -3.1135 ev

!    total energy              =     -77.16211831 Ry
     Harris-Foulkes estimate   =     -77.16211849 Ry
     estimated scf accuracy    <       0.00000019 Ry

     The total energy is the sum of the following terms:

     one-electron contribution =    -269.13928085 Ry
     hartree contribution      =     139.26331122 Ry
     xc contribution           =     -33.51704732 Ry
     ewald contribution        =      86.35212146 Ry
     smearing contrib. (-TS)   =      -0.12122282 Ry

     convergence has been achieved in  15 iterations

     Forces acting on atoms (cartesian axes, Ry/au):

     atom    1 type  1   force =    -0.00464625   -0.00194475    0.00000000
     atom    2 type  1   force =    -0.00000197   -0.00069283    0.00000000
     atom    3 type  1   force =     0.00466507   -0.00194868    0.00000000
     atom    4 type  1   force =    -0.00823540   -0.00474127    0.00000000
     atom    5 type  1   force =    -0.00400563   -0.00305989    0.00000000
     atom    6 type  1   force =     0.01928297    0.01113520    0.00000000
     atom    7 type  1   force =    -0.01928721    0.01112284    0.00000000
     atom    8 type  1   force =     0.00001569   -0.00001013    0.00000000
     atom    9 type  1   force =    -0.00061671    0.00036290    0.00000000
     atom   10 type  1   force =     0.00064444    0.00499849    0.00000000
     atom   11 type  1   force =    -0.00000990   -0.02226299    0.00000000
     atom   12 type  1   force =    -0.00000100    0.00000088    0.00000000
     atom   13 type  1   force =     0.00822072   -0.00474481    0.00000000
     atom   14 type  1   force =     0.00401947   -0.00306658    0.00000000
     atom   15 type  1   force =    -0.00001077    0.00949872    0.00000000
     atom   16 type  1   force =    -0.00063907    0.00499471    0.00000000
     atom   17 type  1   force =     0.00060556    0.00035818    0.00000000

     Total force =     0.043726     Total SCF correction =     0.000311

     Computing stress (Cartesian axis) and pressure

          total   stress  (Ry/bohr**3)                   (kbar)     P=   -0.80
  -0.00000821   0.00000001   0.00000000         -1.21      0.00      0.00
   0.00000001  -0.00000820   0.00000000          0.00     -1.21      0.00
   0.00000000   0.00000000   0.00000001          0.00      0.00      0.00

     BFGS Geometry Optimization

     number of scf cycles    =   1
     number of bfgs steps    =   0

     enthalpy new            =     -77.1621183094 Ry

     new trust radius        =       0.0222671464 bohr
     new conv_thr            =       0.0000010000 Ry

     new unit-cell volume =  20877.23341 a.u.^3 (  3093.68677 Ang^3 )
     density =      0.27358 g/cm^3

CELL_PARAMETERS (alat= 25.26072511)
   0.999794757   0.000000229   0.000000000
  -0.499897180   0.865847772   0.000000000
   0.000000000   0.000000000   1.496177267

ATOMIC_POSITIONS (angstrom)
Al      -0.002457009   2.571031638   0.000000000
Al       2.227468725   1.285663721   0.000000000
Al       4.457374415   2.571048773   0.000000000
Al       6.678018952   1.283541031   0.000000000
Al      -2.229555750   6.428513259   0.000000000
Al       0.010235289   5.149993172   0.000000000
Al       4.444735288   5.150005842   0.000000000
Al      -4.454864692  10.288198399   0.000000000
Al      -2.227729511   9.002365487   0.000000000
Al       0.000374231  10.290867515   0.000000000
Al       2.227497803   8.990414050   0.000000000
Al       8.909812019   2.572099435   0.000000000
Al      11.141631638   1.283558374   0.000000000
Al       6.684502622   6.428548149   0.000000000
Al       8.909840120   5.149165785   0.000000000
Al       4.454601439  10.290884730   0.000000000
Al       6.682729697   9.002401417   0.000000000

     Writing output data file 7al_planar_2x2_vcr.save/
     NEW-OLD atomic charge density approx. for the potential

     negative rho (up, down):  3.809E-07 0.000E+00
     extrapolated charge   50.97909, renormalised to   51.00000

[...]

     negative rho (up, down):  1.934E-07 0.000E+00

[...]

     enthalpy old            =     -77.1621183094 Ry
     enthalpy new            =     -77.1640579621 Ry

     CASE: enthalpy_new < enthalpy_old

     WARNING: bfgs curvature condition failed, Theta= 0.837
     new trust radius        =       0.0333938731 bohr
     new conv_thr            =       0.0000010000 Ry

[...]

     iteration # 12     ecut=    80.00 Ry     beta= 0.40
     Davidson diagonalization with overlap
     c_bands:  1 eigenvalues not converged
     ethr =  2.19E-08,  avg # of iterations = 20.0

[...]

     CASE: enthalpy_new > enthalpy_old

[...]

     Threshold (ethr) on eigenvalues was too large:
     Diagonalizing with lowered threshold

     Davidson diagonalization with overlap
     ethr =  3.76E-08,  avg # of iterations =  6.0

[...]

     WARNING: bfgs curvature condition failed, Theta= 0.944
     new trust radius        =       0.1116530890 bohr
     new conv_thr            =       0.0000010000 Ry

[...]

     iteration #  1     ecut=    80.00 Ry     beta= 0.40
     Davidson diagonalization with overlap
     c_bands:  1 eigenvalues not converged
     ethr =  1.00E-06,  avg # of iterations = 20.0

[...]

     Total force =     0.000528     Total SCF correction =     0.000059
     SCF correction compared to forces is large: reduce conv_thr to get better values

[...]

     Total force =     0.000448     Total SCF correction =     0.000029

[...]

     Writing output data file 7al_planar_2x2_vcr.save/
     NEW-OLD atomic charge density approx. for the potential
     extrapolated charge   51.00001, renormalised to   51.00000

[...]

     negative rho (up, down):  3.842E-08 0.000E+00
     extrapolated charge   50.99999, renormalised to   51.00000

[...]

     CASE: enthalpy_new < enthalpy_old

[...]

     new trust radius        =       0.0001010099 bohr
     new conv_thr            =       0.0000000100 Ry

[...]

     Writing output data file 7al_planar_2x2_vcr.save/
     NEW-OLD atomic charge density approx. for the potential
     extrapolated charge   51.00002, renormalised to   51.00000

[...]

     new trust radius        =       0.0000349996 bohr

     trust_radius < trust_radius_min

     resetting bfgs history

     new conv_thr            =       0.0000000100 Ry

[...]

     number of scf cycles    = 218
     number of bfgs steps    = 214

     enthalpy old            =     -78.0594379103 Ry
     enthalpy new            =     -78.0594379100 Ry

     CASE: enthalpy_new > enthalpy_old

     new trust radius        =       0.0000007544 bohr

     trust_radius < trust_radius_min

     resetting bfgs history

     Message from routine bfgs:
     history already reset at previous step: stopping
     new conv_thr            =       0.0000000100 Ry

     new unit-cell volume =  15095.21529 a.u.^3 (  2236.88009 Ang^3 )
     density =      0.37837 g/cm^3

[...]

ATOMIC_POSITIONS (angstrom)
Al      -0.874573345   1.143658561   0.000000000
Al       2.175409424   2.300943521   0.000000000
Al       5.103553510   0.668754229   0.000000000
Al       7.357306328   1.537011424   0.000000000
Al      -2.689963581   2.950782758   0.000000000
Al      -0.005753374   3.824683989   0.000000000
Al       4.867353470   3.252891924   0.000000000
Al      -4.621933179   7.272293627   0.000000000
Al      -2.131952602   5.556495596   0.000000000
Al       0.560003483   6.508370593   0.000000000
Al       2.741151752   4.984644314   0.000000000
Al       9.691645147   2.314441363   0.000000000
Al      11.081734913   0.193801012   0.000000000
Al       7.490037955   4.067287179   0.000000000
Al      10.126245925   4.829723088   0.000000000
Al       5.425344180   5.858607278   0.000000000
Al       7.924645415   6.582583867   0.000000000

     Writing output data file 7al_planar_2x2_vcr.save/
     NEW-OLD atomic charge density approx. for the potential

[...]

     Threshold (ethr) on eigenvalues was too large:
     Diagonalizing with lowered threshold

     Davidson diagonalization with overlap
     ethr =  2.04E-10,  avg # of iterations =  1.0

[...]

     bfgs converged in 219 scf cycles and 214 bfgs steps
     (criteria: energy <  1.0E-05 Ry, force <  1.0E-04Ry/Bohr, cell <  5.0E-05kbar)

     End of BFGS Geometry Optimization

     Final enthalpy =     -78.0594379105 Ry
Begin final coordinates
     new unit-cell volume =  15095.21529 a.u.^3 (  2236.88009 Ang^3 )
     density =      0.37837 g/cm^3

CELL_PARAMETERS (alat= 25.26072511)
   1.113225213   0.006558944   0.000000000
  -0.558955941   0.558964908   0.000000000
   0.000000000   0.000000000   1.496177267

ATOMIC_POSITIONS (angstrom)
Al      -0.874573345   1.143658561   0.000000000
Al       2.175409424   2.300943521   0.000000000
Al       5.103553510   0.668754229   0.000000000
Al       7.357306328   1.537011424   0.000000000
Al      -2.689963581   2.950782758   0.000000000
Al      -0.005753374   3.824683989   0.000000000
Al       4.867353470   3.252891924   0.000000000
Al      -4.621933179   7.272293627   0.000000000
Al      -2.131952602   5.556495596   0.000000000
Al       0.560003483   6.508370593   0.000000000
Al       2.741151752   4.984644314   0.000000000
Al       9.691645147   2.314441363   0.000000000
Al      11.081734913   0.193801012   0.000000000
Al       7.490037955   4.067287179   0.000000000
Al      10.126245925   4.829723088   0.000000000
Al       5.425344180   5.858607278   0.000000000
Al       7.924645415   6.582583867   0.000000000
End final coordinates

     Writing output data file 7al_planar_2x2_vcr.save/

     A final scf calculation at the relaxed structure.
     The G-vectors are recalculated for the final unit cell
     Results may differ from those at the preceding step.

     bravais-lattice index     =            4
     lattice parameter (alat)  =      25.2607  a.u.
     unit-cell volume          =   15095.2153 (a.u.)^3
     number of atoms/cell      =           17
     number of atomic types    =            1
     number of electrons       =        51.00
     number of Kohn-Sham states=           31
     kinetic-energy cutoff     =      80.0000  Ry
     charge density cutoff     =     320.0000  Ry
     convergence threshold     =      1.0E-08
     mixing beta               =       0.4000
     number of iterations used =            8  plain     mixing
     Exchange-correlation      = PBE ( 1  4  3  4 0 0)

     celldm(1)=  25.260725  celldm(2)=   0.000000  celldm(3)=   1.496177
     celldm(4)=   0.000000  celldm(5)=   0.000000  celldm(6)=   0.000000

     crystal axes: (cart. coord. in units of alat)
               a(1) = (   1.113225   0.006559   0.000000 )
               a(2) = (  -0.558956   0.558965   0.000000 )
               a(3) = (   0.000000   0.000000   1.496177 )

     reciprocal axes: (cart. coord. in units 2 pi/alat)
               b(1) = (  0.893029  0.893015  0.000000 )
               b(2) = ( -0.010479  1.778542  0.000000 )
               b(3) = (  0.000000  0.000000  0.668370 )

     PseudoPot. # 1 for Al read from file:
     ./Al.upf
     MD5 check sum: 4974d48a734c9d7d1eb6780a1419d19d
     Pseudo is Norm-conserving + core correction, Zval =  3.0
     Generated using ONCVPSP code by D. R. Hamann
     Using radial grid of 1876 points,  6 beta functions with:
                l(1) =   0
                l(2) =   0
                l(3) =   1
                l(4) =   1
                l(5) =   2
                l(6) =   2

     atomic species   valence    mass     pseudopotential
        Al             3.00    29.98200     Al( 1.00)

      2 Sym. Ops. (no inversion) found

   Cartesian axes

     site n.     atom                  positions (alat units)
         1           Al  tau(   1) = (  -0.0654258   0.0855558   0.0000000  )
         2           Al  tau(   2) = (   0.1627399   0.1721310   0.0000000  )
         3           Al  tau(   3) = (   0.3817910   0.0500287   0.0000000  )
         4           Al  tau(   4) = (   0.5503917   0.1149821   0.0000000  )
         5           Al  tau(   5) = (  -0.2012331   0.2207447   0.0000000  )
         6           Al  tau(   6) = (  -0.0004304   0.2861203   0.0000000  )
         7           Al  tau(   7) = (   0.3641212   0.2433451   0.0000000  )
         8           Al  tau(   8) = (  -0.3457616   0.5440320   0.0000000  )
         9           Al  tau(   9) = (  -0.1594890   0.4156751   0.0000000  )
        10           Al  tau(  10) = (   0.0418932   0.4868838   0.0000000  )
        11           Al  tau(  11) = (   0.2050624   0.3728956   0.0000000  )
        12           Al  tau(  12) = (   0.7250210   0.1731407   0.0000000  )
        13           Al  tau(  13) = (   0.8290120   0.0144980   0.0000000  )
        14           Al  tau(  14) = (   0.5603212   0.3042691   0.0000000  )
        15           Al  tau(  15) = (   0.7575329   0.3613061   0.0000000  )
        16           Al  tau(  16) = (   0.4058638   0.4382758   0.0000000  )
        17           Al  tau(  17) = (   0.5928337   0.4924356   0.0000000  )

     number of k points=     1  Methfessel-Paxton smearing, width (Ry)=  0.0500
                       cart. coord. in units 2pi/alat
        k(    1) = (   0.0000000   0.0000000   0.0000000), wk =   2.0000000

     Initial potential from superposition of free atoms

     starting charge   50.95840, renormalised to   51.00000

     negative rho (up, down):  4.033E-05 0.000E+00
     Starting wfcs are   68 randomized atomic wfcs

     Self-consistent Calculation

[...]

     negative rho (up, down):  1.260E-08 0.000E+00

[...]

     total energy              =     -78.05931602 Ry
     Harris-Foulkes estimate   =     -78.05931602 Ry
     estimated scf accuracy    <       0.00000002 Ry

     iteration # 16     ecut=    80.00 Ry     beta= 0.40
     Davidson diagonalization with overlap
     ethr =  4.67E-11,  avg # of iterations =  2.0

     End of self-consistent calculation

          k = 0.0000 0.0000 0.0000 (182431 PWs)   bands (ev):

   -11.2072  -9.9747  -9.9326  -9.8260  -9.7395  -8.5717  -8.5418  -8.5032
    -8.3702  -6.2254  -6.1817  -6.0105  -5.8830  -5.2044  -5.0575  -4.9612
    -4.8408  -4.7430  -4.6261  -4.3620  -4.1934  -4.1545  -3.4194  -3.4117
    -3.3406  -3.2479  -2.1193  -2.1016  -2.0942  -1.9541  -1.2653

     the Fermi energy is    -2.9709 ev

!    total energy              =     -78.05931601 Ry
     Harris-Foulkes estimate   =     -78.05931601 Ry
     estimated scf accuracy    <          1.6E-09 Ry

     The total energy is the sum of the following terms:

     one-electron contribution =    -366.23097627 Ry
     hartree contribution      =     188.17104433 Ry
     xc contribution           =     -34.77973362 Ry
     ewald contribution        =     134.76215300 Ry
     smearing contrib. (-TS)   =       0.01819656 Ry

     convergence has been achieved in  16 iterations

     Forces acting on atoms (cartesian axes, Ry/au):

     atom    1 type  1   force =    -0.00000118   -0.00000398    0.00000000
     atom    2 type  1   force =    -0.00000091    0.00000668    0.00000000
     atom    3 type  1   force =    -0.00000316    0.00000075    0.00000000
     atom    4 type  1   force =     0.00000190   -0.00000287    0.00000000
     atom    5 type  1   force =    -0.00000396   -0.00000440    0.00000000
     atom    6 type  1   force =     0.00000122    0.00000215    0.00000000
     atom    7 type  1   force =    -0.00000025    0.00000078    0.00000000
     atom    8 type  1   force =     0.00000425    0.00000021    0.00000000
     atom    9 type  1   force =    -0.00000125   -0.00000245    0.00000000
     atom   10 type  1   force =     0.00000133   -0.00000079    0.00000000
     atom   11 type  1   force =    -0.00000137   -0.00000088    0.00000000
     atom   12 type  1   force =    -0.00000356   -0.00000065    0.00000000
     atom   13 type  1   force =     0.00000098   -0.00000062    0.00000000
     atom   14 type  1   force =     0.00000049    0.00000311    0.00000000
     atom   15 type  1   force =    -0.00000011   -0.00000109    0.00000000
     atom   16 type  1   force =     0.00000570    0.00000148    0.00000000
     atom   17 type  1   force =    -0.00000012    0.00000258    0.00000000

     Total force =     0.000015     Total SCF correction =     0.000036
     SCF correction compared to forces is large: reduce conv_thr to get better values

     Computing stress (Cartesian axis) and pressure

          total   stress  (Ry/bohr**3)                   (kbar)     P=    0.00
   0.00000002  -0.00000000   0.00000000          0.00     -0.00      0.00
  -0.00000000   0.00000003   0.00000000         -0.00      0.00      0.00
   0.00000000   0.00000000  -0.00000001          0.00      0.00     -0.00

     Writing output data file 7al_planar_2x2_vcr.save/

     General routines

     Parallel routines

      20h

   This run was terminated on:  21:17:39  25Nov2020

   JOB DONE.