     Program PWSCF v.6.3MaX starts on 26Nov2020 at  8: 7:27

     R & G space division:  proc/nbgrp/npool/nimage =       8
     Waiting for input...
     Reading input from standard input

     Current dimensions of program PWSCF are:
     Max number of different atomic species (ntypx) = 10
     Max number of k-points (npk) =  40000
     Max angular momentum in pseudopotentials (lmaxx) =  3

     Subspace diagonalization in iterative solution of the eigenvalue problem:
     a serial algorithm will be used

     bravais-lattice index     =            4
     lattice parameter (alat)  =      33.6810  a.u.
     unit-cell volume          =   37130.3117 (a.u.)^3
     number of atoms/cell      =           31
     number of atomic types    =            1
     number of electrons       =        93.00
     number of Kohn-Sham states=           56
     kinetic-energy cutoff     =      80.0000  Ry
     charge density cutoff     =     320.0000  Ry
     convergence threshold     =      1.0E-06
     mixing beta               =       0.4000
     number of iterations used =            8  plain     mixing
     Exchange-correlation      = PBE ( 1  4  3  4 0 0)
     nstep                     =          300

     celldm(1)=  33.680967  celldm(2)=   0.000000  celldm(3)=   1.122133
     celldm(4)=   0.000000  celldm(5)=   0.000000  celldm(6)=   0.000000

     crystal axes: (cart. coord. in units of alat)
               a(1) = (   1.000000   0.000000   0.000000 )
               a(2) = (  -0.500000   0.866025   0.000000 )
               a(3) = (   0.000000   0.000000   1.122133 )

     reciprocal axes: (cart. coord. in units 2 pi/alat)
               b(1) = (  1.000000  0.577350  0.000000 )
               b(2) = (  0.000000  1.154701  0.000000 )
               b(3) = (  0.000000  0.000000  0.891160 )

     PseudoPot. # 1 for Al read from file:
     ./Al.upf
     MD5 check sum: 4974d48a734c9d7d1eb6780a1419d19d
     Pseudo is Norm-conserving + core correction, Zval =  3.0
     Generated using ONCVPSP code by D. R. Hamann
     Using radial grid of 1876 points,  6 beta functions with:
                l(1) =   0
                l(2) =   0
                l(3) =   1
                l(4) =   1
                l(5) =   2
                l(6) =   2

     atomic species   valence    mass     pseudopotential
        Al             3.00    29.98200     Al( 1.00)

      2 Sym. Ops. (no inversion) found

   Cartesian axes

     site n.     atom                  positions (alat units)
         1           Al  tau(   1) = (  -0.0000000   0.1443393   0.0000000  )
         2           Al  tau(   2) = (   0.1250015   0.0721696   0.0000000  )
         3           Al  tau(   3) = (  -0.1249997   0.3608472   0.0000000  )
         4           Al  tau(   4) = (   0.0000018   0.2886775   0.0000000  )
         5           Al  tau(   5) = (  -0.2499994   0.5773550   0.0000000  )
         6           Al  tau(   6) = (  -0.1249979   0.5051854   0.0000000  )
         7           Al  tau(   7) = (  -0.3749991   0.7938629   0.0000000  )
         8           Al  tau(   8) = (  -0.2499976   0.7216932   0.0000000  )
         9           Al  tau(   9) = (   0.2500011   0.1443403   0.0000000  )
        10           Al  tau(  10) = (   0.3750027   0.0721706   0.0000000  )
        11           Al  tau(  11) = (   0.1250014   0.3608482   0.0000000  )
        12           Al  tau(  12) = (   0.2500030   0.2886785   0.0000000  )
        13           Al  tau(  13) = (   0.0000017   0.5773560   0.0000000  )
        14           Al  tau(  14) = (   0.1250033   0.5051864   0.0000000  )
        15           Al  tau(  15) = (  -0.1249980   0.7938639   0.0000000  )
        16           Al  tau(  16) = (   0.0000036   0.7216942   0.0000000  )
        17           Al  tau(  17) = (   0.5000023   0.1443413   0.0000000  )
        18           Al  tau(  18) = (   0.6250038   0.0721717   0.0000000  )
        19           Al  tau(  19) = (   0.5000041   0.2886795   0.0000000  )
        20           Al  tau(  20) = (   0.2500029   0.5773571   0.0000000  )
        21           Al  tau(  21) = (   0.3750044   0.5051874   0.0000000  )
        22           Al  tau(  22) = (   0.1250032   0.7938649   0.0000000  )
        23           Al  tau(  23) = (   0.2500047   0.7216953   0.0000000  )
        24           Al  tau(  24) = (   0.7500035   0.1443423   0.0000000  )
        25           Al  tau(  25) = (   0.8750050   0.0721727   0.0000000  )
        26           Al  tau(  26) = (   0.6250038   0.3608502   0.0000000  )
        27           Al  tau(  27) = (   0.7500053   0.2886805   0.0000000  )
        28           Al  tau(  28) = (   0.5000041   0.5773581   0.0000000  )
        29           Al  tau(  29) = (   0.6250056   0.5051884   0.0000000  )
        30           Al  tau(  30) = (   0.3750044   0.7938660   0.0000000  )
        31           Al  tau(  31) = (   0.5000059   0.7216963   0.0000000  )

     number of k points=     1  Methfessel-Paxton smearing, width (Ry)=  0.0500
                       cart. coord. in units 2pi/alat
        k(    1) = (   0.0000000   0.0000000   0.0000000), wk =   2.0000000

     Initial potential from superposition of free atoms

     starting charge   92.92414, renormalised to   93.00000

     negative rho (up, down):  9.278E-05 0.000E+00
     Starting wfcs are  124 randomized atomic wfcs

     Self-consistent Calculation

     iteration #  1     ecut=    80.00 Ry     beta= 0.40
     Davidson diagonalization with overlap
     ethr =  1.00E-02,  avg # of iterations =  2.0

     total energy              =    -140.64175959 Ry
     Harris-Foulkes estimate   =    -141.23601560 Ry
     estimated scf accuracy    <       1.54928191 Ry

[...]

     End of self-consistent calculation

          k = 0.0000 0.0000 0.0000 (448403 PWs)   bands (ev):

    -9.9529  -9.4483  -9.4331  -9.4328  -9.4259  -9.4257  -9.1459  -8.4048
    -8.4047  -8.3883  -8.3880  -8.3797  -8.3035  -8.2570  -8.2568  -7.5866
    -6.9324  -6.9324  -6.8232  -6.4866  -6.4772  -6.4772  -6.3701  -6.3700
    -5.4641  -4.8434  -4.8433  -4.8368  -4.7357  -4.7356  -4.4780  -4.4680
    -4.4428  -4.4428  -4.1226  -4.1224  -3.9779  -3.4711  -3.4688  -3.4686
    -3.4577  -3.4575  -3.4017  -3.2744  -3.2743  -3.2224  -3.2076  -2.9743
    -2.9653  -2.9652  -2.9389  -2.5197  -2.5196  -2.4500  -2.4492  -2.4314

     the Fermi energy is    -3.0911 ev

!    total energy              =    -140.93610784 Ry
     Harris-Foulkes estimate   =    -140.93610851 Ry
     estimated scf accuracy    <       0.00000076 Ry

     The total energy is the sum of the following terms:

     one-electron contribution =    -502.03537518 Ry
     hartree contribution      =     259.76215387 Ry
     xc contribution           =     -61.33561119 Ry
     ewald contribution        =     162.75374192 Ry
     smearing contrib. (-TS)   =      -0.08101727 Ry

     convergence has been achieved in  17 iterations

     Forces acting on atoms (cartesian axes, Ry/au):

     atom    1 type  1   force =    -0.00183076   -0.00107523    0.00000000
     atom    2 type  1   force =     0.00525425    0.00128646    0.00000000
     atom    3 type  1   force =     0.00000956   -0.00230742    0.00000000
     atom    4 type  1   force =     0.00370535    0.00393323    0.00000000
     atom    5 type  1   force =     0.00117648    0.00069719    0.00000000
     atom    6 type  1   force =    -0.00002045   -0.00051628    0.00000000
     atom    7 type  1   force =    -0.00196402    0.00114851    0.00000000
     atom    8 type  1   force =    -0.00045846    0.00021387    0.00000000
     atom    9 type  1   force =     0.00064249   -0.00331581    0.00000000
     atom   10 type  1   force =    -0.00001517    0.00133077    0.00000000
     atom   11 type  1   force =    -0.00252182    0.00219504    0.00000000
     atom   12 type  1   force =     0.01312006    0.00760648    0.00000000
     atom   13 type  1   force =    -0.00114861    0.00069633    0.00000000
     atom   14 type  1   force =     0.00115867   -0.00066149    0.00000000
     atom   15 type  1   force =     0.00000962   -0.00132284    0.00000000
     atom   16 type  1   force =     0.00045398    0.00023607    0.00000000
     atom   17 type  1   force =    -0.00062464   -0.00332510    0.00000000
     atom   18 type  1   force =    -0.00525897    0.00127405    0.00000000
     atom   19 type  1   force =    -0.01312987    0.00761504    0.00000000
     atom   20 type  1   force =    -0.00314299    0.00111271    0.00000000
     atom   21 type  1   force =    -0.00000509   -0.01513635    0.00000000
     atom   22 type  1   force =     0.00198729    0.00114132    0.00000000
     atom   23 type  1   force =    -0.00154703   -0.00522800    0.00000000
     atom   24 type  1   force =     0.00184588   -0.00107386    0.00000000
     atom   25 type  1   force =    -0.00001296    0.00000825    0.00000000
     atom   26 type  1   force =     0.00252940    0.00219964    0.00000000
     atom   27 type  1   force =    -0.00371376    0.00392491    0.00000000
     atom   28 type  1   force =     0.00315453    0.00110098    0.00000000
     atom   29 type  1   force =    -0.00117560   -0.00066075    0.00000000
     atom   30 type  1   force =    -0.00000357    0.00214181    0.00000000
     atom   31 type  1   force =     0.00152623   -0.00523954    0.00000000

     Total force =     0.031216     Total SCF correction =     0.000652

     Computing stress (Cartesian axis) and pressure

          total   stress  (Ry/bohr**3)                   (kbar)     P=   -0.57
  -0.00000577   0.00000001   0.00000000         -0.85      0.00      0.00
   0.00000001  -0.00000580   0.00000000          0.00     -0.85      0.00
   0.00000000   0.00000000  -0.00000001          0.00      0.00     -0.00

     BFGS Geometry Optimization

     number of scf cycles    =   1
     number of bfgs steps    =   0

     enthalpy new            =    -140.9361078449 Ry

     new trust radius        =       0.0151783521 bohr
     new conv_thr            =       0.0000010000 Ry

     new unit-cell volume =  37119.57356 a.u.^3 (  5500.55323 Ang^3 )
     density =      0.28059 g/cm^3

CELL_PARAMETERS (alat= 33.68096681)
   0.999855768   0.000000302   0.000000000
  -0.499927622   0.865899687   0.000000000
   0.000000000   0.000000000   1.122132950

ATOMIC_POSITIONS (angstrom)
Al      -0.000968467   2.571645963   0.000000000
Al       2.230385818   1.286788271   0.000000000
Al      -2.227566891   6.429296941   0.000000000
Al       0.001994153   5.146491606   0.000000000
Al      -4.454521611  10.289189612   0.000000000
Al      -2.227549312   9.002440294   0.000000000
Al      -6.683755395  14.147731335   0.000000000
Al      -4.455353203  12.861129551   0.000000000
Al       4.455518258   2.570480013   0.000000000
Al       6.682775891   1.286831256   0.000000000
Al       2.226271878   6.431698738   0.000000000
Al       4.462153611   5.148454667   0.000000000
Al      -0.000573695  10.289208700   0.000000000
Al       2.228252690   9.002383008   0.000000000
Al      -2.227533014  14.146443282   0.000000000
Al       0.000307695  12.861160836   0.000000000
Al       8.910025942   2.570494640   0.000000000
Al      11.135179519   1.286820784   0.000000000
[...]

[...]

     Writing output data file 19al_planar_2x2_vcr.save/
     NEW-OLD atomic charge density approx. for the potential
     Check: negative starting charge=   -0.000121

[...]

     Writing output data file 19al_planar_2x2_vcr.save/
     Check: negative starting charge=   -0.000121
     NEW-OLD atomic charge density approx. for the potential
     Check: negative starting charge=   -0.000133

[...]

     iteration #  1     ecut=    80.00 Ry     beta= 0.40
     Davidson diagonalization with overlap
     c_bands:  1 eigenvalues not converged
     ethr =  1.00E-06,  avg # of iterations = 20.0

[...]

     WARNING: bfgs curvature condition failed, Theta= 0.651
     uphill step: resetting bfgs history

[...]

     Threshold (ethr) on eigenvalues was too large:
     Diagonalizing with lowered threshold

     Davidson diagonalization with overlap
     ethr =  3.87E-08,  avg # of iterations =  6.0

[...]

     WARNING: bfgs curvature condition failed, Theta= 0.836
     new trust radius        =       0.0758772599 bohr
     new conv_thr            =       0.0000010000 Ry

[...]

     CASE: enthalpy_new > enthalpy_old

[...]

     iteration #  1     ecut=    80.00 Ry     beta= 0.40
     Davidson diagonalization with overlap
     c_bands:  2 eigenvalues not converged
     ethr =  1.00E-06,  avg # of iterations = 20.0

[...]

     Total force =     0.000848     Total SCF correction =     0.000096
     SCF correction compared to forces is large: reduce conv_thr to get better values

[...]

     Total force =     0.000421     Total SCF correction =     0.000017

[...]

     negative rho (up, down):  1.150E-08 0.000E+00
     extrapolated charge   92.99997, renormalised to   93.00000

[...]

     Writing output data file 19al_planar_2x2_vcr.save/
     Check: negative starting charge=   -0.000131
     NEW-OLD atomic charge density approx. for the potential
     Check: negative starting charge=   -0.000131
     extrapolated charge   92.99978, renormalised to   93.00000

[...]

     Writing output data file 19al_planar_2x2_vcr.save/
     Check: negative starting charge=   -0.000131
     NEW-OLD atomic charge density approx. for the potential
     Check: negative starting charge=   -0.000131
     extrapolated charge   92.99970, renormalised to   93.00000

[...]

     small trust_radius: resetting bfgs history

[...]

     number of scf cycles    = 243
     number of bfgs steps    = 241

     enthalpy old            =    -142.2701674622 Ry
     enthalpy new            =    -142.2701674687 Ry

     CASE: enthalpy_new < enthalpy_old

     WARNING: bfgs curvature condition failed, Theta= 0.974
     Message from routine bfgs:
     history already reset at previous step: stopping
     small trust_radius: resetting bfgs history

     new trust radius        =       0.0000245110 bohr
     new conv_thr            =       0.0000000100 Ry

     new unit-cell volume =  26092.83352 a.u.^3 (  3866.55896 Ang^3 )
     density =      0.39916 g/cm^3

[...]

ATOMIC_POSITIONS (angstrom)
Al       1.504803520   2.748595221   0.000000000
Al       2.469978946   0.244751767   0.000000000
Al      -1.146197528   3.164706482   0.000000000
Al       0.539598398   5.252508561   0.000000000
Al      -3.076907580   8.172481286   0.000000000
Al      -2.111476817   5.668640825   0.000000000
Al      -6.693483344  11.092251419   0.000000000
Al      -4.042299113  10.676224753   0.000000000
Al       4.155840076   2.332692903   0.000000000
Al       5.121056201  -0.171154223   0.000000000
Al       2.225185293   7.340474308   0.000000000
Al       3.190607641   4.836548728   0.000000000
Al      -0.425806450   7.756480071   0.000000000
Al       1.259916596   9.844475989   0.000000000
Al      -1.391146192  10.260352918   0.000000000
Al       0.294589452  12.348348772   0.000000000
Al       6.806915755   1.916856933   0.000000000
Al       9.458054317   1.500853078   0.000000000
Al       5.841692892   4.420646545   0.000000000
Al       3.910877866   9.428334125   0.000000000
Al       4.876228999   6.924445231   0.000000000
Al       4.631569436  14.020110907   0.000000000
Al       2.945613089  11.932309093   0.000000000
Al      11.143937593   3.588705102   0.000000000
Al      14.760060434   0.668703680   0.000000000
Al       7.527328948   6.508493444   0.000000000
Al       8.492828138   4.004672594   0.000000000
Al       6.561907353   9.012263000   0.000000000
Al      10.178513364   6.092515256   0.000000000
Al       5.596603935  11.516183529   0.000000000
Al       9.213052781   8.596361693   0.000000000

     Writing output data file 19al_planar_2x2_vcr.save/
     Check: negative starting charge=   -0.000131
     NEW-OLD atomic charge density approx. for the potential
     Check: negative starting charge=   -0.000131

[...]

     Threshold (ethr) on eigenvalues was too large:
     Diagonalizing with lowered threshold

     Davidson diagonalization with overlap
     ethr =  4.87E-11,  avg # of iterations =  6.0

[...]

     bfgs converged in 244 scf cycles and 242 bfgs steps
     (criteria: energy <  1.0E-05 Ry, force <  1.0E-04Ry/Bohr, cell <  5.0E-05kbar)

     End of BFGS Geometry Optimization

     Final enthalpy =    -142.2701674735 Ry
Begin final coordinates
     new unit-cell volume =  26092.83352 a.u.^3 (  3866.55896 Ang^3 )
     density =      0.39916 g/cm^3

CELL_PARAMETERS (alat= 33.68096681)
   0.838298896   0.000444781   0.000000000
  -0.419539489   0.725756950   0.000000000
   0.000000000   0.000000000   1.122132950

ATOMIC_POSITIONS (angstrom)
Al       1.504803520   2.748595221   0.000000000
Al       2.469978946   0.244751767   0.000000000
Al      -1.146197528   3.164706482   0.000000000
Al       0.539598398   5.252508561   0.000000000
Al      -3.076907580   8.172481286   0.000000000
Al      -2.111476817   5.668640825   0.000000000
Al      -6.693483344  11.092251419   0.000000000
Al      -4.042299113  10.676224753   0.000000000
Al       4.155840076   2.332692903   0.000000000
Al       5.121056201  -0.171154223   0.000000000
Al       2.225185293   7.340474308   0.000000000
Al       3.190607641   4.836548728   0.000000000
Al      -0.425806450   7.756480071   0.000000000
Al       1.259916596   9.844475989   0.000000000
Al      -1.391146192  10.260352918   0.000000000
Al       0.294589452  12.348348772   0.000000000
Al       6.806915755   1.916856933   0.000000000
Al       9.458054317   1.500853078   0.000000000
Al       5.841692892   4.420646545   0.000000000
Al       3.910877866   9.428334125   0.000000000
Al       4.876228999   6.924445231   0.000000000
Al       4.631569436  14.020110907   0.000000000
Al       2.945613089  11.932309093   0.000000000
Al      11.143937593   3.588705102   0.000000000
Al      14.760060434   0.668703680   0.000000000
Al       7.527328948   6.508493444   0.000000000
Al       8.492828138   4.004672594   0.000000000
Al       6.561907353   9.012263000   0.000000000
Al      10.178513364   6.092515256   0.000000000
Al       5.596603935  11.516183529   0.000000000
Al       9.213052781   8.596361693   0.000000000
End final coordinates

     Writing output data file 19al_planar_2x2_vcr.save/

     A final scf calculation at the relaxed structure.
     The G-vectors are recalculated for the final unit cell
     Results may differ from those at the preceding step.

     bravais-lattice index     =            4
     lattice parameter (alat)  =      33.6810  a.u.
     unit-cell volume          =   26092.8335 (a.u.)^3
     number of atoms/cell      =           31
     number of atomic types    =            1
     number of electrons       =        93.00
     number of Kohn-Sham states=           56
     kinetic-energy cutoff     =      80.0000  Ry
     charge density cutoff     =     320.0000  Ry
     convergence threshold     =      1.0E-08
     mixing beta               =       0.4000
     number of iterations used =            8  plain     mixing
     Exchange-correlation      = PBE ( 1  4  3  4 0 0)

     celldm(1)=  33.680967  celldm(2)=   0.000000  celldm(3)=   1.122133
     celldm(4)=   0.000000  celldm(5)=   0.000000  celldm(6)=   0.000000

     crystal axes: (cart. coord. in units of alat)
               a(1) = (   0.838299   0.000445   0.000000 )
               a(2) = (  -0.419539   0.725757   0.000000 )
               a(3) = (   0.000000   0.000000   1.122133 )

     reciprocal axes: (cart. coord. in units 2 pi/alat)
               b(1) = (  1.192526  0.689366  0.000000 )
               b(2) = ( -0.000731  1.377449  0.000000 )
               b(3) = (  0.000000  0.000000  0.891160 )

     PseudoPot. # 1 for Al read from file:
     ./Al.upf
     MD5 check sum: 4974d48a734c9d7d1eb6780a1419d19d
     Pseudo is Norm-conserving + core correction, Zval =  3.0
     Generated using ONCVPSP code by D. R. Hamann
     Using radial grid of 1876 points,  6 beta functions with:
                l(1) =   0
                l(2) =   0
                l(3) =   1
                l(4) =   1
                l(5) =   2
                l(6) =   2

     atomic species   valence    mass     pseudopotential
        Al             3.00    29.98200     Al( 1.00)

      2 Sym. Ops. (no inversion) found

   Cartesian axes

     site n.     atom                  positions (alat units)
         1           Al  tau(   1) = (   0.0844295   0.1542145   0.0000000  )
         2           Al  tau(   2) = (   0.1385822   0.0137322   0.0000000  )
         3           Al  tau(   3) = (  -0.0643093   0.1775611   0.0000000  )
         4           Al  tau(   4) = (   0.0302751   0.2947006   0.0000000  )
         5           Al  tau(   5) = (  -0.1726350   0.4585305   0.0000000  )
         6           Al  tau(   6) = (  -0.1184679   0.3180484   0.0000000  )
         7           Al  tau(   7) = (  -0.3755489   0.6223490   0.0000000  )
         8           Al  tau(   8) = (  -0.2267999   0.5990072   0.0000000  )
         9           Al  tau(   9) = (   0.2331703   0.1308796   0.0000000  )
        10           Al  tau(  10) = (   0.2873253  -0.0096029   0.0000000  )
        11           Al  tau(  11) = (   0.1248477   0.4118494   0.0000000  )
        12           Al  tau(  12) = (   0.1790143   0.2713625   0.0000000  )
        13           Al  tau(  13) = (  -0.0238906   0.4351901   0.0000000  )
        14           Al  tau(  14) = (   0.0706897   0.5523405   0.0000000  )
        15           Al  tau(  15) = (  -0.0780525   0.5756740   0.0000000  )
        16           Al  tau(  16) = (   0.0165284   0.6928245   0.0000000  )
        17           Al  tau(  17) = (   0.3819132   0.1075484   0.0000000  )
        18           Al  tau(  18) = (   0.5306597   0.0842078   0.0000000  )
        19           Al  tau(  19) = (   0.3277578   0.2480277   0.0000000  )
        20           Al  tau(  20) = (   0.2194262   0.5289922   0.0000000  )
        21           Al  tau(  21) = (   0.2735889   0.3885074   0.0000000  )
        22           Al  tau(  22) = (   0.2598618   0.7866214   0.0000000  )
        23           Al  tau(  23) = (   0.1652685   0.6694819   0.0000000  )
        24           Al  tau(  24) = (   0.6252490   0.2013502   0.0000000  )
        25           Al  tau(  25) = (   0.8281375   0.0375187   0.0000000  )
        26           Al  tau(  26) = (   0.4223332   0.3651697   0.0000000  )
        27           Al  tau(  27) = (   0.4765041   0.2246888   0.0000000  )
        28           Al  tau(  28) = (   0.3681666   0.5056479   0.0000000  )
        29           Al  tau(  29) = (   0.5710823   0.3418306   0.0000000  )
        30           Al  tau(  30) = (   0.3140067   0.6461344   0.0000000  )
        31           Al  tau(  31) = (   0.5169135   0.4823130   0.0000000  )

     number of k points=     1  Methfessel-Paxton smearing, width (Ry)=  0.0500
                       cart. coord. in units 2pi/alat
        k(    1) = (   0.0000000   0.0000000   0.0000000), wk =   2.0000000

     Initial potential from superposition of free atoms

     starting charge   92.92414, renormalised to   93.00000

     negative rho (up, down):  7.270E-05 0.000E+00
     Starting wfcs are  124 randomized atomic wfcs

     Self-consistent Calculation

[...]

     negative rho (up, down):  3.670E-08 0.000E+00

[...]

     total energy              =    -142.26988402 Ry
     Harris-Foulkes estimate   =    -142.26988403 Ry
     estimated scf accuracy    <       0.00000008 Ry

     iteration # 14     ecut=    80.00 Ry     beta= 0.40
     Davidson diagonalization with overlap
     ethr =  8.13E-11,  avg # of iterations =  4.0

     End of self-consistent calculation

          k = 0.0000 0.0000 0.0000 (315219 PWs)   bands (ev):

   -11.6236 -10.7478 -10.7478 -10.7477 -10.7477 -10.7477 -10.7476  -9.0217
    -9.0216  -9.0216  -9.0216  -9.0216  -9.0215  -8.1738  -8.1738  -8.1737
    -8.1737  -8.1737  -8.1737  -5.7782  -5.7782  -5.7781  -5.7781  -5.7781
    -5.7780  -5.7076  -5.7076  -5.7075  -5.7075  -5.7075  -5.7075  -4.8691
    -4.0234  -4.0234  -4.0234  -4.0233  -4.0233  -4.0233  -3.7524  -3.7523
    -3.7522  -3.7522  -3.7521  -3.7520  -2.3346  -2.3345  -2.3345  -2.3345
    -2.3345  -2.3345  -1.8112  -1.8112  -1.8111  -1.8111  -1.8110  -1.8110

     the Fermi energy is    -2.4051 ev

!    total energy              =    -142.26988401 Ry
     Harris-Foulkes estimate   =    -142.26988402 Ry
     estimated scf accuracy    <          8.4E-09 Ry

     The total energy is the sum of the following terms:

     one-electron contribution =    -702.58091205 Ry
     hartree contribution      =     360.19340181 Ry
     xc contribution           =     -63.84989996 Ry
     ewald contribution        =     264.01419173 Ry
     smearing contrib. (-TS)   =      -0.04666554 Ry

     convergence has been achieved in  14 iterations

     Forces acting on atoms (cartesian axes, Ry/au):

     atom    1 type  1   force =     0.00000377    0.00000870    0.00000000
     atom    2 type  1   force =     0.00000382    0.00000474    0.00000000
     atom    3 type  1   force =    -0.00000437    0.00000160    0.00000000
     atom    4 type  1   force =    -0.00000842    0.00001177    0.00000000
     atom    5 type  1   force =    -0.00000512   -0.00000640    0.00000000
     atom    6 type  1   force =    -0.00000589   -0.00000671    0.00000000
     atom    7 type  1   force =     0.00001227   -0.00000584    0.00000000
     atom    8 type  1   force =     0.00000034    0.00001249    0.00000000
     atom    9 type  1   force =     0.00000274   -0.00000066    0.00000000
     atom   10 type  1   force =     0.00000216    0.00000877    0.00000000
     atom   11 type  1   force =     0.00000259   -0.00000153    0.00000000
     atom   12 type  1   force =    -0.00000794   -0.00000166    0.00000000
     atom   13 type  1   force =     0.00000646    0.00000271    0.00000000
     atom   14 type  1   force =    -0.00001136   -0.00001990    0.00000000
     atom   15 type  1   force =    -0.00000131    0.00000274    0.00000000
     atom   16 type  1   force =    -0.00000245   -0.00000827    0.00000000
     atom   17 type  1   force =    -0.00000257   -0.00001060    0.00000000
     atom   18 type  1   force =    -0.00000812    0.00000306    0.00000000
     atom   19 type  1   force =    -0.00001238   -0.00000935    0.00000000
     atom   20 type  1   force =     0.00000120    0.00000180    0.00000000
     atom   21 type  1   force =     0.00000006   -0.00000003    0.00000000
     atom   22 type  1   force =    -0.00000941    0.00000191    0.00000000
     atom   23 type  1   force =     0.00001021   -0.00000442    0.00000000
     atom   24 type  1   force =    -0.00000781   -0.00000297    0.00000000
     atom   25 type  1   force =     0.00000924    0.00000255    0.00000000
     atom   26 type  1   force =     0.00001244   -0.00000196    0.00000000
     atom   27 type  1   force =    -0.00001421    0.00000095    0.00000000
     atom   28 type  1   force =     0.00001034    0.00001376    0.00000000
     atom   29 type  1   force =     0.00000130    0.00001065    0.00000000
     atom   30 type  1   force =     0.00001506   -0.00000103    0.00000000
     atom   31 type  1   force =     0.00000737   -0.00000687    0.00000000

     Total force =     0.000060     Total SCF correction =     0.000097
     SCF correction compared to forces is large: reduce conv_thr to get better values

     Computing stress (Cartesian axis) and pressure

          total   stress  (Ry/bohr**3)                   (kbar)     P=    0.00
   0.00000003   0.00000001   0.00000000          0.00      0.00      0.00
   0.00000001   0.00000006   0.00000000          0.00      0.01      0.00
   0.00000000   0.00000000  -0.00000002          0.00      0.00     -0.00

     Writing output data file 19al_planar_2x2_vcr.save/

     General routines

     Parallel routines

   This run was terminated on:   8:10:26  27Nov2020

   JOB DONE.