     Program PWSCF v.6.3MaX starts on 26Nov2020 at  9:19:19

     R & G space division:  proc/nbgrp/npool/nimage =       8
     Waiting for input...
     Reading input from standard input

     Current dimensions of program PWSCF are:
     Max number of different atomic species (ntypx) = 10
     Max number of k-points (npk) =  40000
     Max angular momentum in pseudopotentials (lmaxx) =  3

     Subspace diagonalization in iterative solution of the eigenvalue problem:
     a serial algorithm will be used

     bravais-lattice index     =            4
     lattice parameter (alat)  =      33.6810  a.u.
     unit-cell volume          =   37130.3117 (a.u.)^3
     number of atoms/cell      =           31
     number of atomic types    =            1
     number of electrons       =        93.00
     number of Kohn-Sham states=           56
     kinetic-energy cutoff     =      80.0000  Ry
     charge density cutoff     =     320.0000  Ry
     convergence threshold     =      1.0E-06
     mixing beta               =       0.4000
     number of iterations used =            8  plain     mixing
     Exchange-correlation      = PBE ( 1  4  3  4 0 0)
     nstep                     =          300

     celldm(1)=  33.680967  celldm(2)=   0.000000  celldm(3)=   1.122133
     celldm(4)=   0.000000  celldm(5)=   0.000000  celldm(6)=   0.000000

     crystal axes: (cart. coord. in units of alat)
               a(1) = (   1.000000   0.000000   0.000000 )
               a(2) = (  -0.500000   0.866025   0.000000 )
               a(3) = (   0.000000   0.000000   1.122133 )

     reciprocal axes: (cart. coord. in units 2 pi/alat)
               b(1) = (  1.000000  0.577350  0.000000 )
               b(2) = (  0.000000  1.154701  0.000000 )
               b(3) = (  0.000000  0.000000  0.891160 )

     PseudoPot. # 1 for Al read from file:
     ./Al.upf
     MD5 check sum: 4974d48a734c9d7d1eb6780a1419d19d
     Pseudo is Norm-conserving + core correction, Zval =  3.0
     Generated using ONCVPSP code by D. R. Hamann
     Using radial grid of 1876 points,  6 beta functions with:
                l(1) =   0
                l(2) =   0
                l(3) =   1
                l(4) =   1
                l(5) =   2
                l(6) =   2

     atomic species   valence    mass     pseudopotential
        Al             3.00    29.98200     Al( 1.00)

      2 Sym. Ops. (no inversion) found

   Cartesian axes

     site n.     atom                  positions (alat units)
         1           Al  tau(   1) = (  -0.0000000   0.1443393   0.0000000  )
         2           Al  tau(   2) = (   0.1250015   0.0721696   0.0000000  )
         3           Al  tau(   3) = (  -0.1249997   0.3608472   0.0000000  )
         4           Al  tau(   4) = (   0.0000018   0.2886775   0.0000000  )
         5           Al  tau(   5) = (  -0.2499994   0.5773550   0.0000000  )
         6           Al  tau(   6) = (  -0.1249979   0.5051854   0.0000000  )
         7           Al  tau(   7) = (  -0.3749991   0.7938629   0.0000000  )
         8           Al  tau(   8) = (  -0.2499976   0.7216932   0.0000000  )
         9           Al  tau(   9) = (   0.2500011   0.1443403   0.0000000  )
        10           Al  tau(  10) = (   0.3750027   0.0721706   0.0000000  )
        11           Al  tau(  11) = (   0.1250014   0.3608482   0.0000000  )
        12           Al  tau(  12) = (   0.2500030   0.2886785   0.0000000  )
        13           Al  tau(  13) = (   0.0000017   0.5773560   0.0000000  )
        14           Al  tau(  14) = (   0.1250033   0.5051864   0.0000000  )
        15           Al  tau(  15) = (  -0.1249980   0.7938639   0.0000000  )
        16           Al  tau(  16) = (   0.0000036   0.7216942   0.0000000  )
        17           Al  tau(  17) = (   0.5000023   0.1443413   0.0000000  )
        18           Al  tau(  18) = (   0.6250038   0.0721717   0.0000000  )
        19           Al  tau(  19) = (   0.3750026   0.3608492   0.0000000  )
        20           Al  tau(  20) = (   0.5000041   0.2886795   0.0000000  )
        21           Al  tau(  21) = (   0.2500029   0.5773571   0.0000000  )
        22           Al  tau(  22) = (   0.3750044   0.5051874   0.0000000  )
        23           Al  tau(  23) = (   0.1250032   0.7938649   0.0000000  )
        24           Al  tau(  24) = (   0.2500047   0.7216953   0.0000000  )
        25           Al  tau(  25) = (   0.7500035   0.1443423   0.0000000  )
        26           Al  tau(  26) = (   0.8750050   0.0721727   0.0000000  )
        27           Al  tau(  27) = (   0.6250038   0.3608502   0.0000000  )
        28           Al  tau(  28) = (   0.7500053   0.2886805   0.0000000  )
        29           Al  tau(  29) = (   0.5000041   0.5773581   0.0000000  )
        30           Al  tau(  30) = (   0.6250056   0.5051884   0.0000000  )
        31           Al  tau(  31) = (   0.3750044   0.7938660   0.0000000  )

     number of k points=     1  Methfessel-Paxton smearing, width (Ry)=  0.0500
                       cart. coord. in units 2pi/alat
        k(    1) = (   0.0000000   0.0000000   0.0000000), wk =   2.0000000

     Initial potential from superposition of free atoms

     starting charge   92.92414, renormalised to   93.00000

     negative rho (up, down):  9.278E-05 0.000E+00
     Starting wfcs are  124 randomized atomic wfcs

     Self-consistent Calculation

     iteration #  1     ecut=    80.00 Ry     beta= 0.40
     Davidson diagonalization with overlap
     ethr =  1.00E-02,  avg # of iterations =  2.0

     total energy              =    -140.64229887 Ry
     Harris-Foulkes estimate   =    -141.23600689 Ry
     estimated scf accuracy    <       1.54840883 Ry

[...]

     End of self-consistent calculation

          k = 0.0000 0.0000 0.0000 (448403 PWs)   bands (ev):

    -9.9529  -9.4483  -9.4329  -9.4329  -9.4259  -9.4258  -9.1458  -8.4049
    -8.4048  -8.3881  -8.3880  -8.3796  -8.3033  -8.2570  -8.2568  -7.5864
    -6.9325  -6.9323  -6.8233  -6.4865  -6.4772  -6.4771  -6.3701  -6.3699
    -5.4639  -4.8436  -4.8432  -4.8370  -4.7357  -4.7354  -4.4780  -4.4680
    -4.4428  -4.4427  -4.1225  -4.1223  -3.9779  -3.4712  -3.4687  -3.4686
    -3.4576  -3.4575  -3.4017  -3.2744  -3.2743  -3.2223  -3.2073  -2.9743
    -2.9652  -2.9652  -2.9388  -2.5198  -2.5196  -2.4499  -2.4480  -2.4314

     the Fermi energy is    -3.0910 ev

!    total energy              =    -140.93611380 Ry
     Harris-Foulkes estimate   =    -140.93611438 Ry
     estimated scf accuracy    <       0.00000063 Ry

     The total energy is the sum of the following terms:

     one-electron contribution =    -502.03541030 Ry
     hartree contribution      =     259.76268614 Ry
     xc contribution           =     -61.33568345 Ry
     ewald contribution        =     162.75328960 Ry
     smearing contrib. (-TS)   =      -0.08099579 Ry

     convergence has been achieved in  18 iterations

     Forces acting on atoms (cartesian axes, Ry/au):

     atom    1 type  1   force =     0.00002521   -0.00132906    0.00000000
     atom    2 type  1   force =    -0.00061147    0.00331283    0.00000000
     atom    3 type  1   force =    -0.00042830   -0.00027256    0.00000000
     atom    4 type  1   force =     0.00004913    0.00133071    0.00000000
     atom    5 type  1   force =    -0.00111151    0.00066085    0.00000000
     atom    6 type  1   force =     0.00117847   -0.00060016    0.00000000
     atom    7 type  1   force =    -0.01309331   -0.00756703    0.00000000
     atom    8 type  1   force =     0.00254715   -0.00214577    0.00000000
     atom    9 type  1   force =    -0.00531184   -0.00126679    0.00000000
     atom   10 type  1   force =     0.00187069    0.00110681    0.00000000
     atom   11 type  1   force =     0.00042694   -0.00029414    0.00000000
     atom   12 type  1   force =     0.00202284   -0.00114146    0.00000000
     atom   13 type  1   force =    -0.00003658    0.00050747    0.00000000
     atom   14 type  1   force =    -0.00107178   -0.00061370    0.00000000
     atom   15 type  1   force =    -0.00376021   -0.00398115    0.00000000
     atom   16 type  1   force =     0.00002630    0.00231820    0.00000000
     atom   17 type  1   force =     0.00001463   -0.00001067    0.00000000
     atom   18 type  1   force =    -0.00186075    0.00111138    0.00000000
     atom   19 type  1   force =    -0.00157980    0.00516553    0.00000000
     atom   20 type  1   force =     0.00001208   -0.00214466    0.00000000
     atom   21 type  1   force =     0.00106712    0.00061189    0.00000000
     atom   22 type  1   force =    -0.00321768   -0.00112255    0.00000000
     atom   23 type  1   force =     0.00370655   -0.00396978    0.00000000
     atom   24 type  1   force =    -0.00257383   -0.00219434    0.00000000
     atom   25 type  1   force =     0.00525386   -0.00120251    0.00000000
     atom   26 type  1   force =     0.00061801    0.00326382    0.00000000
     atom   27 type  1   force =     0.00159005    0.00514012    0.00000000
     atom   28 type  1   force =    -0.00207999   -0.00120826    0.00000000
     atom   29 type  1   force =     0.00004692    0.01516955    0.00000000
     atom   30 type  1   force =     0.00313930   -0.00110323    0.00000000
     atom   31 type  1   force =     0.01314183   -0.00753135    0.00000000

     Total force =     0.031204     Total SCF correction =     0.000631

     Computing stress (Cartesian axis) and pressure

          total   stress  (Ry/bohr**3)                   (kbar)     P=   -0.57
  -0.00000582  -0.00000003   0.00000000         -0.86     -0.00      0.00
  -0.00000003  -0.00000576   0.00000000         -0.00     -0.85      0.00
   0.00000000   0.00000000   0.00000000          0.00      0.00      0.00

     BFGS Geometry Optimization

     number of scf cycles    =   1
     number of bfgs steps    =   0

     enthalpy new            =    -140.9361138046 Ry

     new trust radius        =       0.0151696258 bohr
     new conv_thr            =       0.0000010000 Ry

     new unit-cell volume =  37119.56686 a.u.^3 (  5500.55223 Ang^3 )
     density =      0.28059 g/cm^3

CELL_PARAMETERS (alat= 33.68096681)
   0.999854506  -0.000000650   0.000000000
  -0.499927816   0.865901100   0.000000000
   0.000000000   0.000000000   1.122132950

ATOMIC_POSITIONS (angstrom)
Al       0.000011082   2.571514443   0.000000000
Al       2.227278224   1.287859693   0.000000000
Al      -2.227801881   6.430382664   0.000000000
Al       0.000054742   5.145120177   0.000000000
Al      -4.455736371  10.289185760   0.000000000
Al      -2.226920728   9.002407780   0.000000000
Al      -6.689648945  14.143141613   0.000000000
Al      -4.453769564  12.859899218   0.000000000
Al       4.452359746   2.571562689   0.000000000
Al       6.683764037   1.286707780   0.000000000
Al       2.227823131   6.430386545   0.000000000
Al       4.456271534   5.143827446   0.000000000
Al       0.000004874  10.289119903   0.000000000
Al       2.227061164   9.002415910   0.000000000
Al      -2.229538300  14.145054197   0.000000000
Al       0.000069152  12.862276405   0.000000000
Al       8.910350483   2.572242596   0.000000000
Al      11.136962234   1.286725494   0.000000000
Al       6.681933862   6.433290558   0.000000000
Al       8.910380145   5.143311944   0.000000000
Al       4.455761344  10.289190448   0.000000000
Al       6.681098270   9.002161973   0.000000000
Al       2.229584865  14.145075505   0.000000000
Al       4.453865927  12.859904116   0.000000000
Al      13.368295063   2.571627289   0.000000000
Al      15.593446249   1.287879647   0.000000000
Al      11.138783533   6.433292408   0.000000000
Al      13.364445730   5.143822693   0.000000000
Al       8.910394052  10.296908218   0.000000000
Al      11.139634251   9.002187491   0.000000000
Al       6.689749578  14.143206370   0.000000000

     Writing output data file 32al_planar_2x2_vcr.save/
     NEW-OLD atomic charge density approx. for the potential

     negative rho (up, down):  2.992E-07 0.000E+00
     extrapolated charge   92.97310, renormalised to   93.00000

[...]

     negative rho (up, down):  1.477E-07 0.000E+00

[...]

     enthalpy old            =    -140.9361138046 Ry
     enthalpy new            =    -140.9370792664 Ry

     CASE: enthalpy_new < enthalpy_old

     WARNING: bfgs curvature condition failed, Theta= 0.846
     new trust radius        =       0.0227511640 bohr
     new conv_thr            =       0.0000009655 Ry

[...]

     iteration #  9     ecut=    80.00 Ry     beta= 0.40
     Davidson diagonalization with overlap
     c_bands:  1 eigenvalues not converged
     ethr =  1.44E-09,  avg # of iterations = 20.0

[...]

     Writing output data file 32al_planar_2x2_vcr.save/
     NEW-OLD atomic charge density approx. for the potential

[...]

     Writing output data file 32al_planar_2x2_vcr.save/
     NEW-OLD atomic charge density approx. for the potential
     Check: negative starting charge=   -0.000121

[...]

     Writing output data file 32al_planar_2x2_vcr.save/
     Check: negative starting charge=   -0.000121
     NEW-OLD atomic charge density approx. for the potential
     Check: negative starting charge=   -0.000133

[...]

     WARNING: bfgs curvature condition failed, Theta= 0.310
     new trust radius        =       0.8000000000 bohr
     new conv_thr            =       0.0000010000 Ry

[...]

     Threshold (ethr) on eigenvalues was too large:
     Diagonalizing with lowered threshold

     Davidson diagonalization with overlap
     ethr =  8.71E-08,  avg # of iterations =  6.0

[...]

     iteration #  1     ecut=    80.00 Ry     beta= 0.40
     Davidson diagonalization with overlap
     c_bands:  1 eigenvalues not converged
     ethr =  1.00E-06,  avg # of iterations = 20.0

[...]

     CASE: enthalpy_new < enthalpy_old

[...]

     CASE: enthalpy_new > enthalpy_old

[...]

     new trust radius        =       0.0000652122 bohr

     trust_radius < trust_radius_min

     resetting bfgs history

     new conv_thr            =       0.0000001651 Ry

[...]

     new trust radius        =       0.0000226539 bohr

     trust_radius < trust_radius_min

     resetting bfgs history

     new conv_thr            =       0.0000001651 Ry

[...]

     Self-consistent Calculation

[...]

     Threshold (ethr) on eigenvalues was too large:
     Diagonalizing with lowered threshold

     Davidson diagonalization with overlap
     ethr =  2.38E-09,  avg # of iterations = 13.0

[...]

     negative rho (up, down):  2.121E-08 0.000E+00

     total energy              =    -142.07545420 Ry
     Harris-Foulkes estimate   =    -142.07545424 Ry
     estimated scf accuracy    <       0.00000020 Ry

     iteration #  6     ecut=    80.00 Ry     beta= 0.40
     Davidson diagonalization with overlap
     ethr =  2.18E-10,  avg # of iterations =  4.0

     End of self-consistent calculation

          k = 0.0000 0.0000 0.0000 (448403 PWs)   bands (ev):

   -11.5945 -10.9676 -10.8665 -10.7683 -10.6968 -10.5832 -10.1774  -9.2721
    -9.2444  -9.1559  -8.8944  -8.7235  -8.6999  -8.3378  -8.1926  -8.1617
    -8.0781  -7.8994  -7.7246  -6.2471  -6.2050  -6.1193  -6.0559  -5.8958
    -5.7319  -5.6737  -5.4583  -5.3160  -5.2762  -5.1959  -5.1479  -4.8525
    -4.4820  -4.4675  -4.1977  -4.1919  -4.1178  -4.0626  -4.0170  -3.9584
    -3.9561  -3.7174  -3.6743  -3.6629  -2.5622  -2.5480  -2.4572  -2.2856
    -2.1836  -2.1499  -1.9321  -1.8574  -1.7243  -1.7121  -1.6553  -1.5709

     the Fermi energy is    -2.4320 ev

!    total energy              =    -142.07545421 Ry
     Harris-Foulkes estimate   =    -142.07545422 Ry
     estimated scf accuracy    <       0.00000001 Ry

     The total energy is the sum of the following terms:

     one-electron contribution =    -684.61726092 Ry
     hartree contribution      =     351.06838130 Ry
     xc contribution           =     -63.67534849 Ry
     ewald contribution        =     255.17826589 Ry
     smearing contrib. (-TS)   =      -0.02949199 Ry

     convergence has been achieved in   6 iterations

     Forces acting on atoms (cartesian axes, Ry/au):

     atom    1 type  1   force =     0.00010440    0.00157623    0.00000000
     atom    2 type  1   force =    -0.00072179   -0.00138257    0.00000000
     atom    3 type  1   force =     0.00010991    0.00005557    0.00000000
     atom    4 type  1   force =    -0.00044797   -0.00026243    0.00000000
     atom    5 type  1   force =    -0.00033341   -0.00110207    0.00000000
     atom    6 type  1   force =     0.00021376    0.00181927    0.00000000
     atom    7 type  1   force =    -0.00019437   -0.00019823    0.00000000
     atom    8 type  1   force =     0.00036040    0.00017680    0.00000000
     atom    9 type  1   force =    -0.00041185   -0.00016161    0.00000000
     atom   10 type  1   force =     0.00071792    0.00031693    0.00000000
     atom   11 type  1   force =    -0.00151631    0.00262824    0.00000000
     atom   12 type  1   force =    -0.00027290   -0.00158704    0.00000000
     atom   13 type  1   force =     0.00169058   -0.00096173    0.00000000
     atom   14 type  1   force =     0.00053543   -0.00135903    0.00000000
     atom   15 type  1   force =     0.00146170    0.00024982    0.00000000
     atom   16 type  1   force =    -0.00033375   -0.00097395    0.00000000
     atom   17 type  1   force =     0.00037996   -0.00232262    0.00000000
     atom   18 type  1   force =     0.00011881    0.00111177    0.00000000
     atom   19 type  1   force =     0.00012481    0.00134281    0.00000000
     atom   20 type  1   force =     0.00020043   -0.00135735    0.00000000
     atom   21 type  1   force =     0.00012539    0.00013985    0.00000000
     atom   22 type  1   force =    -0.00229691    0.00078130    0.00000000
     atom   23 type  1   force =     0.00161174   -0.00041424    0.00000000
     atom   24 type  1   force =    -0.00099428   -0.00085030    0.00000000
     atom   25 type  1   force =    -0.00059225    0.00134414    0.00000000
     atom   26 type  1   force =    -0.00029842    0.00061283    0.00000000
     atom   27 type  1   force =     0.00012049    0.00108228    0.00000000
     atom   28 type  1   force =    -0.00017422   -0.00067845    0.00000000
     atom   29 type  1   force =    -0.00000735   -0.00095283    0.00000000
     atom   30 type  1   force =    -0.00038951    0.00174988    0.00000000
     atom   31 type  1   force =     0.00110952   -0.00042327    0.00000000

     Total force =     0.007915     Total SCF correction =     0.000090

     Computing stress (Cartesian axis) and pressure

          total   stress  (Ry/bohr**3)                   (kbar)     P=    0.10
   0.00000011   0.00000267   0.00000000          0.02      0.39      0.00
   0.00000267   0.00000192   0.00000000          0.39      0.28      0.00
   0.00000000   0.00000000  -0.00000001          0.00      0.00     -0.00

     number of scf cycles    = 300
     number of bfgs steps    = 252

     enthalpy old            =    -142.0755832020 Ry
     enthalpy new            =    -142.0754542094 Ry

     CASE: enthalpy_new > enthalpy_old

     new trust radius        =       0.0005431509 bohr
     new conv_thr            =       0.0000001651 Ry

     new unit-cell volume =  26842.23374 a.u.^3 (  3977.60861 Ang^3 )
     density =      0.38802 g/cm^3

CELL_PARAMETERS (alat= 33.68096681)
   0.869653651   0.010674101   0.000000000
  -0.426051048   0.714674297   0.000000000
   0.000000000   0.000000000   1.122132950

ATOMIC_POSITIONS (angstrom)
Al      -0.660233249   3.162464415   0.000000000
Al       1.726859026   1.905355662   0.000000000
Al      -3.168185377   4.567041957   0.000000000
Al      -1.138933125   6.015558184   0.000000000
Al      -3.632085174   7.359940039   0.000000000
Al      -1.532610991   8.686419724   0.000000000
Al      -5.828012815  11.739894460   0.000000000
Al      -3.796474042  10.122513830   0.000000000
Al       3.549921004   3.833183093   0.000000000
Al       4.081818785   0.567172615   0.000000000
Al       1.267813982   4.843031390   0.000000000
Al       5.810150569   2.743187225   0.000000000
Al       0.630859292   9.860704225   0.000000000
Al       0.939408630   7.427370548   0.000000000
Al      -1.586836388  11.411167563   0.000000000
Al       0.809879084  12.281627543   0.000000000
Al       8.195461962   1.975390228   0.000000000
Al      10.626791903   0.641720433   0.000000000
Al       5.559725641   5.495079055   0.000000000
Al       7.862523605   4.528236305   0.000000000
Al       3.333663298   6.665341505   0.000000000
Al       7.381216343   7.433879315   0.000000000
Al       3.024999321  10.680296858   0.000000000
Al       5.053446641   8.882041844   0.000000000
Al      12.758287961   1.952541480   0.000000000
Al      15.054910802   0.584286253   0.000000000
Al       9.793651010   6.156527174   0.000000000
Al      10.288220916   3.337571140   0.000000000
Al       7.388766163  10.386072713   0.000000000
Al       9.550854680   8.901481936   0.000000000
Al       5.277870124  11.914464606   0.000000000

     Writing output data file 32al_planar_2x2_vcr.save/
     Check: negative starting charge=   -0.000132
     NEW-OLD atomic charge density approx. for the potential
     Check: negative starting charge=   -0.000132

     negative rho (up, down):  2.394E-07 0.000E+00
     extrapolated charge   92.99871, renormalised to   93.00000

     Writing output data file 32al_planar_2x2_vcr.save/

     General routines

     Parallel routines

   This run was terminated on:  10: 9:10  27Nov2020

   JOB DONE.