     Program PWSCF v.6.3MaX starts on 25Nov2020 at 18: 6:36

     R & G space division:  proc/nbgrp/npool/nimage =       8
     Waiting for input...
     Reading input from standard input

     Current dimensions of program PWSCF are:
     Max number of different atomic species (ntypx) = 10
     Max number of k-points (npk) =  40000
     Max angular momentum in pseudopotentials (lmaxx) =  3

     Subspace diagonalization in iterative solution of the eigenvalue problem:
     a serial algorithm will be used

     bravais-lattice index     =            4
     lattice parameter (alat)  =      25.2607  a.u.
     unit-cell volume          =   20885.8003 (a.u.)^3
     number of atoms/cell      =           17
     number of atomic types    =            1
     number of electrons       =        51.00
     number of Kohn-Sham states=           31
     kinetic-energy cutoff     =      80.0000  Ry
     charge density cutoff     =     320.0000  Ry
     convergence threshold     =      1.0E-06
     mixing beta               =       0.4000
     number of iterations used =            8  plain     mixing
     Exchange-correlation      = PBE ( 1  4  3  4 0 0)
     nstep                     =          300

     celldm(1)=  25.260725  celldm(2)=   0.000000  celldm(3)=   1.496177
     celldm(4)=   0.000000  celldm(5)=   0.000000  celldm(6)=   0.000000

     crystal axes: (cart. coord. in units of alat)
               a(1) = (   1.000000   0.000000   0.000000 )
               a(2) = (  -0.500000   0.866025   0.000000 )
               a(3) = (   0.000000   0.000000   1.496177 )

     reciprocal axes: (cart. coord. in units 2 pi/alat)
               b(1) = (  1.000000  0.577350  0.000000 )
               b(2) = (  0.000000  1.154701  0.000000 )
               b(3) = (  0.000000  0.000000  0.668370 )

     PseudoPot. # 1 for Al read from file:
     ./Al.upf
     MD5 check sum: 4974d48a734c9d7d1eb6780a1419d19d
     Pseudo is Norm-conserving + core correction, Zval =  3.0
     Generated using ONCVPSP code by D. R. Hamann
     Using radial grid of 1876 points,  6 beta functions with:
                l(1) =   0
                l(2) =   0
                l(3) =   1
                l(4) =   1
                l(5) =   2
                l(6) =   2

     atomic species   valence    mass     pseudopotential
        Al             3.00    29.98200     Al( 1.00)

      2 Sym. Ops. (no inversion) found

   Cartesian axes

     site n.     atom                  positions (alat units)
         1           Al  tau(   1) = (   0.0000000   0.1924524   0.0000000  )
         2           Al  tau(   2) = (   0.1666687   0.0962261   0.0000000  )
         3           Al  tau(   3) = (   0.3333348   0.1924537   0.0000000  )
         4           Al  tau(   4) = (   0.5000036   0.0962275   0.0000000  )
         5           Al  tau(   5) = (  -0.1666663   0.4811295   0.0000000  )
         6           Al  tau(   6) = (   0.0000024   0.3849033   0.0000000  )
         7           Al  tau(   7) = (   0.1666686   0.4811309   0.0000000  )
         8           Al  tau(   8) = (   0.3333373   0.3849047   0.0000000  )
         9           Al  tau(   9) = (  -0.3333326   0.7698067   0.0000000  )
        10           Al  tau(  10) = (  -0.1666639   0.6735805   0.0000000  )
        11           Al  tau(  11) = (   0.0000023   0.7698081   0.0000000  )
        12           Al  tau(  12) = (   0.1666710   0.6735818   0.0000000  )
        13           Al  tau(  13) = (   0.6666697   0.1924551   0.0000000  )
        14           Al  tau(  14) = (   0.8333384   0.0962289   0.0000000  )
        15           Al  tau(  15) = (   0.5000035   0.4811323   0.0000000  )
        16           Al  tau(  16) = (   0.6666722   0.3849060   0.0000000  )
        17           Al  tau(  17) = (   0.3333372   0.7698094   0.0000000  )

     number of k points=     1  Methfessel-Paxton smearing, width (Ry)=  0.0500
                       cart. coord. in units 2pi/alat
        k(    1) = (   0.0000000   0.0000000   0.0000000), wk =   2.0000000

     Initial potential from superposition of free atoms

     starting charge   50.95840, renormalised to   51.00000

     negative rho (up, down):  5.196E-05 0.000E+00
     Starting wfcs are   68 randomized atomic wfcs

     Self-consistent Calculation

     iteration #  1     ecut=    80.00 Ry     beta= 0.40
     Davidson diagonalization with overlap
     ethr =  1.00E-02,  avg # of iterations =  2.0

     total energy              =     -77.03484112 Ry
     Harris-Foulkes estimate   =     -77.31744373 Ry
     estimated scf accuracy    <       0.79242572 Ry

[...]

     End of self-consistent calculation

          k = 0.0000 0.0000 0.0000 (252395 PWs)   bands (ev):

    -9.9964  -9.1542  -9.0980  -9.0979  -9.0597  -9.0597  -8.4087  -7.5382
    -7.4672  -7.4672  -6.7263  -5.8849  -5.8791  -5.8791  -5.6092  -5.6091
    -4.7519  -4.7519  -4.0025  -3.5338  -3.3088  -3.2898  -3.2897  -3.2354
    -3.1474  -3.1133  -3.1132  -3.0989  -3.0988  -2.7511  -2.7510

     the Fermi energy is    -3.1135 ev

!    total energy              =     -77.16211780 Ry
     Harris-Foulkes estimate   =     -77.16211805 Ry
     estimated scf accuracy    <       0.00000030 Ry

     The total energy is the sum of the following terms:

     one-electron contribution =    -269.13828056 Ry
     hartree contribution      =     139.26249577 Ry
     xc contribution           =     -33.51698155 Ry
     ewald contribution        =      86.35186857 Ry
     smearing contrib. (-TS)   =      -0.12122003 Ry

     convergence has been achieved in  15 iterations

     Forces acting on atoms (cartesian axes, Ry/au):

     atom    1 type  1   force =     0.00000760    0.00070167    0.00000000
     atom    2 type  1   force =     0.00465159    0.00195224    0.00000000
     atom    3 type  1   force =    -0.00823761    0.00475257    0.00000000
     atom    4 type  1   force =     0.00000623    0.00002141    0.00000000
     atom    5 type  1   force =     0.00061167   -0.00034517    0.00000000
     atom    6 type  1   force =    -0.00000426    0.00000121    0.00000000
     atom    7 type  1   force =    -0.00060455   -0.00035359    0.00000000
     atom    8 type  1   force =     0.00064266   -0.00501277    0.00000000
     atom    9 type  1   force =    -0.01928412   -0.01115866    0.00000000
     atom   10 type  1   force =     0.00399949    0.00306963    0.00000000
     atom   11 type  1   force =    -0.00000769   -0.00953224    0.00000000
     atom   12 type  1   force =    -0.00401210    0.00306925    0.00000000
     atom   13 type  1   force =     0.00825366    0.00476811    0.00000000
     atom   14 type  1   force =    -0.00467344    0.00196093    0.00000000
     atom   15 type  1   force =     0.00001354    0.02226475    0.00000000
     atom   16 type  1   force =    -0.00065348   -0.00502053    0.00000000
     atom   17 type  1   force =     0.01929082   -0.01113881    0.00000000

     Total force =     0.043763     Total SCF correction =     0.000404

     Computing stress (Cartesian axis) and pressure

          total   stress  (Ry/bohr**3)                   (kbar)     P=   -0.80
  -0.00000821   0.00000001   0.00000000         -1.21      0.00      0.00
   0.00000001  -0.00000820   0.00000000          0.00     -1.21      0.00
   0.00000000   0.00000000   0.00000000          0.00      0.00      0.00

     BFGS Geometry Optimization

     number of scf cycles    =   1
     number of bfgs steps    =   0

     enthalpy new            =     -77.1621178039 Ry

     new trust radius        =       0.0222798743 bohr
     new conv_thr            =       0.0000010000 Ry

     new unit-cell volume =  20877.23300 a.u.^3 (  3093.68671 Ang^3 )
     density =      0.27358 g/cm^3

CELL_PARAMETERS (alat= 25.26072511)
   0.999794721   0.000000238   0.000000000
  -0.499897155   0.865847782   0.000000000
   0.000000000   0.000000000   1.496177267

ATOMIC_POSITIONS (angstrom)
Al       0.000005216   2.572431816   0.000000000
Al       2.229930710   1.287063186   0.000000000
Al       4.450547876   2.574594272   0.000000000
Al       6.682379106   1.286060896   0.000000000
Al      -2.227112746   6.429949620   0.000000000
Al       0.000031062   5.144102609   0.000000000
Al       2.227149902   6.429964416   0.000000000
Al       4.455279438   5.141469118   0.000000000
Al      -4.465075366  10.282300192   0.000000000
Al      -2.225287063   9.003797667   0.000000000
Al       0.000029299  10.283179932   0.000000000
Al       2.225380367   9.003816717   0.000000000
Al       8.914179004   2.574621748   0.000000000
Al      11.134809356   1.287106288   0.000000000
Al       6.682383031   6.441950325   0.000000000
Al       8.909499802   5.141484267   0.000000000
Al       4.465145647  10.282349199   0.000000000

     Writing output data file 18al_planar_2x2_vcr.save/
     NEW-OLD atomic charge density approx. for the potential

     negative rho (up, down):  3.813E-07 0.000E+00
     extrapolated charge   50.97909, renormalised to   51.00000

[...]

     negative rho (up, down):  1.937E-07 0.000E+00

[...]

     enthalpy old            =     -77.1621178039 Ry
     enthalpy new            =     -77.1640606041 Ry

     CASE: enthalpy_new < enthalpy_old

     WARNING: bfgs curvature condition failed, Theta= 0.837
     new trust radius        =       0.0334129607 bohr
     new conv_thr            =       0.0000010000 Ry

[...]

     iteration # 11     ecut=    80.00 Ry     beta= 0.40
     Davidson diagonalization with overlap
     c_bands:  1 eigenvalues not converged
     ethr =  1.05E-08,  avg # of iterations = 20.0

[...]

     CASE: enthalpy_new > enthalpy_old

[...]

     Threshold (ethr) on eigenvalues was too large:
     Diagonalizing with lowered threshold

     Davidson diagonalization with overlap
     ethr =  5.55E-08,  avg # of iterations =  6.0

[...]

     WARNING: info= 55 for Hessian

[...]

     WARNING: info= 55 for Hessian

[...]

     new trust radius        =       0.0000091058 bohr

     trust_radius < trust_radius_min

     resetting bfgs history

     new conv_thr            =       0.0000000100 Ry

[...]

     WARNING: info= 22 for Hessian
     uphill step: resetting bfgs history

[...]

     Total force =     0.000519     Total SCF correction =     0.000066
     SCF correction compared to forces is large: reduce conv_thr to get better values

[...]

     Total force =     0.000382     Total SCF correction =     0.000037

[...]

     WARNING: bfgs curvature condition failed, Theta= 0.803
     new trust radius        =       0.0009956197 bohr
     new conv_thr            =       0.0000000100 Ry

[...]

     negative rho (up, down):  3.460E-08 0.000E+00
     extrapolated charge   50.99995, renormalised to   51.00000

[...]

     Writing output data file 18al_planar_2x2_vcr.save/
     NEW-OLD atomic charge density approx. for the potential
     extrapolated charge   51.00004, renormalised to   51.00000

[...]

     CASE: enthalpy_new < enthalpy_old

     new trust radius        =       0.0001592675 bohr
     new conv_thr            =       0.0000000100 Ry

[...]

     new conv_thr            =       0.0000000100 Ry

[...]

     Writing output data file 18al_planar_2x2_vcr.save/
     NEW-OLD atomic charge density approx. for the potential
     extrapolated charge   51.00003, renormalised to   51.00000

[...]

     number of scf cycles    = 244
     number of bfgs steps    = 235

     enthalpy old            =     -78.0594379281 Ry
     enthalpy new            =     -78.0594379228 Ry

     CASE: enthalpy_new > enthalpy_old

     new trust radius        =       0.0000004071 bohr

     trust_radius < trust_radius_min

     resetting bfgs history

     Message from routine bfgs:
     history already reset at previous step: stopping
     new conv_thr            =       0.0000000100 Ry

     new unit-cell volume =  15095.20404 a.u.^3 (  2236.87843 Ang^3 )
     density =      0.37837 g/cm^3

[...]

ATOMIC_POSITIONS (angstrom)
Al      -0.188764460   3.312054198   0.000000000
Al       2.161593637   2.212258443   0.000000000
Al       4.729569677   3.174250168   0.000000000
Al       6.606191112   1.071585971   0.000000000
Al      -1.919045909   7.087110631   0.000000000
Al       0.198741544   5.696047764   0.000000000
Al       2.697925739   5.016638156   0.000000000
Al       5.113827388   6.131331409   0.000000000
Al      -1.247574604   9.747991179   0.000000000
Al       0.704918243   8.103814224   0.000000000
Al       1.340822190  10.626921500   0.000000000
Al       3.237242405   8.233908467   0.000000000
Al       7.145413842   4.288977874   0.000000000
Al       9.644612021   3.609660776   0.000000000
Al       5.713406363   8.889753148   0.000000000
Al       7.681768015   7.093427882   0.000000000
Al       6.349327038  11.412859598   0.000000000

     Writing output data file 18al_planar_2x2_vcr.save/
     NEW-OLD atomic charge density approx. for the potential

[...]

     Threshold (ethr) on eigenvalues was too large:
     Diagonalizing with lowered threshold

     Davidson diagonalization with overlap
     ethr =  6.87E-11,  avg # of iterations =  1.0

[...]

     bfgs converged in 245 scf cycles and 235 bfgs steps
     (criteria: energy <  1.0E-05 Ry, force <  1.0E-04Ry/Bohr, cell <  5.0E-05kbar)

     End of BFGS Geometry Optimization

     Final enthalpy =     -78.0594379209 Ry
Begin final coordinates
     new unit-cell volume =  15095.20404 a.u.^3 (  2236.87843 Ang^3 )
     density =      0.37837 g/cm^3

CELL_PARAMETERS (alat= 25.26072511)
   0.764609202   0.200605488   0.000000000
  -0.208653724   0.763870536   0.000000000
   0.000000000   0.000000000   1.496177267

ATOMIC_POSITIONS (angstrom)
Al      -0.188764460   3.312054198   0.000000000
Al       2.161593637   2.212258443   0.000000000
Al       4.729569677   3.174250168   0.000000000
Al       6.606191112   1.071585971   0.000000000
Al      -1.919045909   7.087110631   0.000000000
Al       0.198741544   5.696047764   0.000000000
Al       2.697925739   5.016638156   0.000000000
Al       5.113827388   6.131331409   0.000000000
Al      -1.247574604   9.747991179   0.000000000
Al       0.704918243   8.103814224   0.000000000
Al       1.340822190  10.626921500   0.000000000
Al       3.237242405   8.233908467   0.000000000
Al       7.145413842   4.288977874   0.000000000
Al       9.644612021   3.609660776   0.000000000
Al       5.713406363   8.889753148   0.000000000
Al       7.681768015   7.093427882   0.000000000
Al       6.349327038  11.412859598   0.000000000
End final coordinates

     Writing output data file 18al_planar_2x2_vcr.save/

     A final scf calculation at the relaxed structure.
     The G-vectors are recalculated for the final unit cell
     Results may differ from those at the preceding step.

     bravais-lattice index     =            4
     lattice parameter (alat)  =      25.2607  a.u.
     unit-cell volume          =   15095.2040 (a.u.)^3
     number of atoms/cell      =           17
     number of atomic types    =            1
     number of electrons       =        51.00
     number of Kohn-Sham states=           31
     kinetic-energy cutoff     =      80.0000  Ry
     charge density cutoff     =     320.0000  Ry
     convergence threshold     =      1.0E-08
     mixing beta               =       0.4000
     number of iterations used =            8  plain     mixing
     Exchange-correlation      = PBE ( 1  4  3  4 0 0)

     celldm(1)=  25.260725  celldm(2)=   0.000000  celldm(3)=   1.496177
     celldm(4)=   0.000000  celldm(5)=   0.000000  celldm(6)=   0.000000

     crystal axes: (cart. coord. in units of alat)
               a(1) = (   0.764609   0.200605   0.000000 )
               a(2) = (  -0.208654   0.763871   0.000000 )
               a(3) = (   0.000000   0.000000   1.496177 )

     reciprocal axes: (cart. coord. in units 2 pi/alat)
               b(1) = (  1.220397  0.333356  0.000000 )
               b(2) = ( -0.320497  1.221577  0.000000 )
               b(3) = (  0.000000  0.000000  0.668370 )

     PseudoPot. # 1 for Al read from file:
     ./Al.upf
     MD5 check sum: 4974d48a734c9d7d1eb6780a1419d19d
     Pseudo is Norm-conserving + core correction, Zval =  3.0
     Generated using ONCVPSP code by D. R. Hamann
     Using radial grid of 1876 points,  6 beta functions with:
                l(1) =   0
                l(2) =   0
                l(3) =   1
                l(4) =   1
                l(5) =   2
                l(6) =   2

     atomic species   valence    mass     pseudopotential
        Al             3.00    29.98200     Al( 1.00)

      2 Sym. Ops. (no inversion) found

   Cartesian axes

     site n.     atom                  positions (alat units)
         1           Al  tau(   1) = (  -0.0141213   0.2477710   0.0000000  )
         2           Al  tau(   2) = (   0.1617064   0.1654965   0.0000000  )
         3           Al  tau(   3) = (   0.3538137   0.2374620   0.0000000  )
         4           Al  tau(   4) = (   0.4942016   0.0801641   0.0000000  )
         5           Al  tau(   5) = (  -0.1435616   0.5301787   0.0000000  )
         6           Al  tau(   6) = (   0.0148676   0.4261149   0.0000000  )
         7           Al  tau(   7) = (   0.2018288   0.3752890   0.0000000  )
         8           Al  tau(   8) = (   0.3825596   0.4586779   0.0000000  )
         9           Al  tau(   9) = (  -0.0933296   0.7292361   0.0000000  )
        10           Al  tau(  10) = (   0.0527341   0.6062371   0.0000000  )
        11           Al  tau(  11) = (   0.1003054   0.7949879   0.0000000  )
        12           Al  tau(  12) = (   0.2421744   0.6159693   0.0000000  )
        13           Al  tau(  13) = (   0.5345403   0.3208536   0.0000000  )
        14           Al  tau(  14) = (   0.7215025   0.2700346   0.0000000  )
        15           Al  tau(  15) = (   0.4274134   0.6650323   0.0000000  )
        16           Al  tau(  16) = (   0.5746643   0.5306513   0.0000000  )
        17           Al  tau(  17) = (   0.4749859   0.8537831   0.0000000  )

     number of k points=     1  Methfessel-Paxton smearing, width (Ry)=  0.0500
                       cart. coord. in units 2pi/alat
        k(    1) = (   0.0000000   0.0000000   0.0000000), wk =   2.0000000

     Initial potential from superposition of free atoms

     starting charge   50.95840, renormalised to   51.00000

     negative rho (up, down):  4.033E-05 0.000E+00
     Starting wfcs are   68 randomized atomic wfcs

     Self-consistent Calculation

     iteration #  1     ecut=    80.00 Ry     beta= 0.40
     Davidson diagonalization with overlap
     c_bands:  1 eigenvalues not converged
     ethr =  1.00E-06,  avg # of iterations = 20.0

[...]

     negative rho (up, down):  1.283E-08 0.000E+00

[...]

     total energy              =     -78.05931604 Ry
     Harris-Foulkes estimate   =     -78.05931605 Ry
     estimated scf accuracy    <       0.00000002 Ry

     iteration # 16     ecut=    80.00 Ry     beta= 0.40
     Davidson diagonalization with overlap
     ethr =  4.88E-11,  avg # of iterations =  2.0

     End of self-consistent calculation

          k = 0.0000 0.0000 0.0000 (182435 PWs)   bands (ev):

   -11.2072  -9.9748  -9.9327  -9.8260  -9.7395  -8.5718  -8.5418  -8.5032
    -8.3701  -6.2255  -6.1817  -6.0105  -5.8829  -5.2044  -5.0576  -4.9611
    -4.8409  -4.7431  -4.6261  -4.3619  -4.1933  -4.1544  -3.4194  -3.4117
    -3.3405  -3.2479  -2.1193  -2.1016  -2.0942  -1.9541  -1.2652

     the Fermi energy is    -2.9709 ev

!    total energy              =     -78.05931604 Ry
     Harris-Foulkes estimate   =     -78.05931604 Ry
     estimated scf accuracy    <          1.5E-09 Ry

     The total energy is the sum of the following terms:

     one-electron contribution =    -366.23132094 Ry
     hartree contribution      =     188.17124544 Ry
     xc contribution           =     -34.77975320 Ry
     ewald contribution        =     134.76231535 Ry
     smearing contrib. (-TS)   =       0.01819732 Ry

     convergence has been achieved in  16 iterations

     Forces acting on atoms (cartesian axes, Ry/au):

     atom    1 type  1   force =     0.00000264    0.00000349    0.00000000
     atom    2 type  1   force =     0.00000406    0.00000063    0.00000000
     atom    3 type  1   force =    -0.00000171    0.00000605    0.00000000
     atom    4 type  1   force =    -0.00000191   -0.00000137    0.00000000
     atom    5 type  1   force =    -0.00000101   -0.00000139    0.00000000
     atom    6 type  1   force =     0.00000100   -0.00000597    0.00000000
     atom    7 type  1   force =     0.00000046    0.00000102    0.00000000
     atom    8 type  1   force =     0.00000067   -0.00000161    0.00000000
     atom    9 type  1   force =     0.00000106   -0.00000205    0.00000000
     atom   10 type  1   force =    -0.00000244   -0.00000511    0.00000000
     atom   11 type  1   force =    -0.00000511   -0.00000574    0.00000000
     atom   12 type  1   force =     0.00000025    0.00000210    0.00000000
     atom   13 type  1   force =    -0.00000200    0.00000228    0.00000000
     atom   14 type  1   force =     0.00000815    0.00000417    0.00000000
     atom   15 type  1   force =     0.00000365    0.00000229    0.00000000
     atom   16 type  1   force =    -0.00000510   -0.00000089    0.00000000
     atom   17 type  1   force =    -0.00000267    0.00000209    0.00000000

     Total force =     0.000019     Total SCF correction =     0.000035
     SCF correction compared to forces is large: reduce conv_thr to get better values

     Computing stress (Cartesian axis) and pressure

          total   stress  (Ry/bohr**3)                   (kbar)     P=    0.00
   0.00000003   0.00000001   0.00000000          0.00      0.00      0.00
   0.00000001   0.00000003   0.00000000          0.00      0.00      0.00
   0.00000000   0.00000000  -0.00000001          0.00      0.00     -0.00

     Writing output data file 18al_planar_2x2_vcr.save/

     General routines

     Parallel routines

      57h

   This run was terminated on:   1: 3:51  26Nov2020

   JOB DONE.