     Program PWSCF v.6.3MaX starts on 26Nov2020 at  8:21: 1

     R & G space division:  proc/nbgrp/npool/nimage =       8
     Waiting for input...
     Reading input from standard input

     Current dimensions of program PWSCF are:
     Max number of different atomic species (ntypx) = 10
     Max number of k-points (npk) =  40000
     Max angular momentum in pseudopotentials (lmaxx) =  3

     Subspace diagonalization in iterative solution of the eigenvalue problem:
     a serial algorithm will be used

     Message from routine find_sym:
     Not a group! Trying with lower acceptance parameter...
     Message from routine find_sym:
     Symmetry operations form a group

     bravais-lattice index     =            4
     lattice parameter (alat)  =      33.6810  a.u.
     unit-cell volume          =   37130.3117 (a.u.)^3
     number of atoms/cell      =           31
     number of atomic types    =            1
     number of electrons       =        93.00
     number of Kohn-Sham states=           56
     kinetic-energy cutoff     =      80.0000  Ry
     charge density cutoff     =     320.0000  Ry
     convergence threshold     =      1.0E-06
     mixing beta               =       0.4000
     number of iterations used =            8  plain     mixing
     Exchange-correlation      = PBE ( 1  4  3  4 0 0)
     nstep                     =          300

     celldm(1)=  33.680967  celldm(2)=   0.000000  celldm(3)=   1.122133
     celldm(4)=   0.000000  celldm(5)=   0.000000  celldm(6)=   0.000000

     crystal axes: (cart. coord. in units of alat)
               a(1) = (   1.000000   0.000000   0.000000 )
               a(2) = (  -0.500000   0.866025   0.000000 )
               a(3) = (   0.000000   0.000000   1.122133 )

     reciprocal axes: (cart. coord. in units 2 pi/alat)
               b(1) = (  1.000000  0.577350  0.000000 )
               b(2) = (  0.000000  1.154701  0.000000 )
               b(3) = (  0.000000  0.000000  0.891160 )

     PseudoPot. # 1 for Al read from file:
     ./Al.upf
     MD5 check sum: 4974d48a734c9d7d1eb6780a1419d19d
     Pseudo is Norm-conserving + core correction, Zval =  3.0
     Generated using ONCVPSP code by D. R. Hamann
     Using radial grid of 1876 points,  6 beta functions with:
                l(1) =   0
                l(2) =   0
                l(3) =   1
                l(4) =   1
                l(5) =   2
                l(6) =   2

     atomic species   valence    mass     pseudopotential
        Al             3.00    29.98200     Al( 1.00)

      2 Sym. Ops. (no inversion) found

   Cartesian axes

     site n.     atom                  positions (alat units)
         1           Al  tau(   1) = (  -0.0000000   0.1443393   0.0000000  )
         2           Al  tau(   2) = (   0.1250015   0.0721696   0.0000000  )
         3           Al  tau(   3) = (  -0.1249997   0.3608472   0.0000000  )
         4           Al  tau(   4) = (   0.0000018   0.2886775   0.0000000  )
         5           Al  tau(   5) = (  -0.2499994   0.5773550   0.0000000  )
         6           Al  tau(   6) = (  -0.1249979   0.5051854   0.0000000  )
         7           Al  tau(   7) = (  -0.3749991   0.7938629   0.0000000  )
         8           Al  tau(   8) = (  -0.2499976   0.7216932   0.0000000  )
         9           Al  tau(   9) = (   0.2500011   0.1443403   0.0000000  )
        10           Al  tau(  10) = (   0.3750027   0.0721706   0.0000000  )
        11           Al  tau(  11) = (   0.1250014   0.3608482   0.0000000  )
        12           Al  tau(  12) = (   0.2500030   0.2886785   0.0000000  )
        13           Al  tau(  13) = (   0.0000017   0.5773560   0.0000000  )
        14           Al  tau(  14) = (   0.1250033   0.5051864   0.0000000  )
        15           Al  tau(  15) = (  -0.1249980   0.7938639   0.0000000  )
        16           Al  tau(  16) = (   0.0000036   0.7216942   0.0000000  )
        17           Al  tau(  17) = (   0.5000023   0.1443413   0.0000000  )
        18           Al  tau(  18) = (   0.6250038   0.0721717   0.0000000  )
        19           Al  tau(  19) = (   0.3750026   0.3608492   0.0000000  )
        20           Al  tau(  20) = (   0.2500029   0.5773571   0.0000000  )
        21           Al  tau(  21) = (   0.3750044   0.5051874   0.0000000  )
        22           Al  tau(  22) = (   0.1250032   0.7938649   0.0000000  )
        23           Al  tau(  23) = (   0.2500047   0.7216953   0.0000000  )
        24           Al  tau(  24) = (   0.7500035   0.1443423   0.0000000  )
        25           Al  tau(  25) = (   0.8750050   0.0721727   0.0000000  )
        26           Al  tau(  26) = (   0.6250038   0.3608502   0.0000000  )
        27           Al  tau(  27) = (   0.7500053   0.2886805   0.0000000  )
        28           Al  tau(  28) = (   0.5000041   0.5773581   0.0000000  )
        29           Al  tau(  29) = (   0.6250056   0.5051884   0.0000000  )
        30           Al  tau(  30) = (   0.3750044   0.7938660   0.0000000  )
        31           Al  tau(  31) = (   0.5000059   0.7216963   0.0000000  )

     number of k points=     1  Methfessel-Paxton smearing, width (Ry)=  0.0500
                       cart. coord. in units 2pi/alat
        k(    1) = (   0.0000000   0.0000000   0.0000000), wk =   2.0000000

     Initial potential from superposition of free atoms

     starting charge   92.92414, renormalised to   93.00000

     negative rho (up, down):  9.278E-05 0.000E+00
     Starting wfcs are  124 randomized atomic wfcs

     Self-consistent Calculation

     iteration #  1     ecut=    80.00 Ry     beta= 0.40
     Davidson diagonalization with overlap
     ethr =  1.00E-02,  avg # of iterations =  2.0

     total energy              =    -140.64167835 Ry
     Harris-Foulkes estimate   =    -141.23601877 Ry
     estimated scf accuracy    <       1.54943207 Ry

[...]

     End of self-consistent calculation

          k = 0.0000 0.0000 0.0000 (448403 PWs)   bands (ev):

    -9.9529  -9.4482  -9.4332  -9.4330  -9.4259  -9.4258  -9.1459  -8.4049
    -8.4048  -8.3883  -8.3880  -8.3798  -8.3033  -8.2570  -8.2569  -7.5867
    -6.9325  -6.9323  -6.8232  -6.4865  -6.4773  -6.4772  -6.3702  -6.3701
    -5.4641  -4.8436  -4.8433  -4.8369  -4.7358  -4.7356  -4.4782  -4.4682
    -4.4427  -4.4427  -4.1226  -4.1224  -3.9779  -3.4711  -3.4689  -3.4687
    -3.4577  -3.4576  -3.4017  -3.2745  -3.2744  -3.2224  -3.2075  -2.9744
    -2.9653  -2.9653  -2.9390  -2.5199  -2.5196  -2.4500  -2.4490  -2.4315

     the Fermi energy is    -3.0911 ev

!    total energy              =    -140.93611131 Ry
     Harris-Foulkes estimate   =    -140.93611179 Ry
     estimated scf accuracy    <       0.00000053 Ry

     The total energy is the sum of the following terms:

     one-electron contribution =    -502.03589098 Ry
     hartree contribution      =     259.76280952 Ry
     xc contribution           =     -61.33570920 Ry
     ewald contribution        =     162.75369137 Ry
     smearing contrib. (-TS)   =      -0.08101203 Ry

     convergence has been achieved in  17 iterations

     Forces acting on atoms (cartesian axes, Ry/au):

     atom    1 type  1   force =     0.00000177    0.00051942    0.00000000
     atom    2 type  1   force =    -0.00114552   -0.00059754    0.00000000
     atom    3 type  1   force =    -0.00371710   -0.00393472    0.00000000
     atom    4 type  1   force =    -0.00000802    0.00229291    0.00000000
     atom    5 type  1   force =    -0.00528328   -0.00123798    0.00000000
     atom    6 type  1   force =     0.00187910    0.00105690    0.00000000
     atom    7 type  1   force =     0.00043183   -0.00030843    0.00000000
     atom    8 type  1   force =     0.00199053   -0.00116812    0.00000000
     atom    9 type  1   force =     0.00112451    0.00060996    0.00000000
     atom   10 type  1   force =    -0.00319714   -0.00108961    0.00000000
     atom   11 type  1   force =     0.00372491   -0.00391173    0.00000000
     atom   12 type  1   force =    -0.00257014   -0.00217175    0.00000000
     atom   13 type  1   force =     0.00000329   -0.00000253    0.00000000
     atom   14 type  1   force =    -0.00188438    0.00103708    0.00000000
     atom   15 type  1   force =    -0.00152924    0.00516394    0.00000000
     atom   16 type  1   force =    -0.00000826   -0.00213614    0.00000000
     atom   17 type  1   force =     0.00002645    0.01515933    0.00000000
     atom   18 type  1   force =     0.00317584   -0.00106621    0.00000000
     atom   19 type  1   force =     0.01314417   -0.00754246    0.00000000
     atom   20 type  1   force =     0.00526680   -0.00122510    0.00000000
     atom   21 type  1   force =     0.00067687    0.00327701    0.00000000
     atom   22 type  1   force =     0.00154927    0.00515719    0.00000000
     atom   23 type  1   force =    -0.00201081   -0.00115852    0.00000000
     atom   24 type  1   force =    -0.00114428    0.00062035    0.00000000
     atom   25 type  1   force =     0.00115443   -0.00061471    0.00000000
     atom   26 type  1   force =    -0.01311840   -0.00754390    0.00000000
     atom   27 type  1   force =     0.00254005   -0.00215959    0.00000000
     atom   28 type  1   force =     0.00001012   -0.00134240    0.00000000
     atom   29 type  1   force =    -0.00065838    0.00327709    0.00000000
     atom   30 type  1   force =    -0.00043032   -0.00029278    0.00000000
     atom   31 type  1   force =     0.00000534    0.00133305    0.00000000

     Total force =     0.031177     Total SCF correction =     0.000568

     Computing stress (Cartesian axis) and pressure

          total   stress  (Ry/bohr**3)                   (kbar)     P=   -0.57
  -0.00000581   0.00000000   0.00000000         -0.85      0.00      0.00
   0.00000000  -0.00000576   0.00000000          0.00     -0.85      0.00
   0.00000000   0.00000000   0.00000000          0.00      0.00      0.00

     BFGS Geometry Optimization

     number of scf cycles    =   1
     number of bfgs steps    =   0

     enthalpy new            =    -140.9361113136 Ry

     new trust radius        =       0.0151593548 bohr
     new conv_thr            =       0.0000010000 Ry

     new unit-cell volume =  37119.57575 a.u.^3 (  5500.55355 Ang^3 )
     density =      0.28059 g/cm^3

CELL_PARAMETERS (alat= 33.68096681)
   0.999854854   0.000000049   0.000000000
  -0.499927384   0.865900656   0.000000000
   0.000000000   0.000000000   1.122132950

ATOMIC_POSITIONS (angstrom)
Al       0.000000480   2.572492196   0.000000000
Al       2.226997335   1.285792128   0.000000000
Al      -2.229538263   6.428442757   0.000000000
Al       0.000028103   5.145628718   0.000000000
Al      -4.457938011  10.288176853   0.000000000
Al      -2.226544501   9.003281992   0.000000000
Al      -6.682485228  14.146975925   0.000000000
Al      -4.454056627  12.860411983   0.000000000
Al       4.455768570   2.572558517   0.000000000
Al       6.681085874   1.285550185   0.000000000
Al       2.229573365   6.428473333   0.000000000
Al       4.453846539   5.143284874   0.000000000
Al       0.000033172  10.288848941   0.000000000
Al       2.226638294   9.003289917   0.000000000
[...]

[...]

     Threshold (ethr) on eigenvalues was too large:
     Diagonalizing with lowered threshold

     Davidson diagonalization with overlap
     ethr =  9.70E-08,  avg # of iterations =  4.0

[...]

     iteration #  1     ecut=    80.00 Ry     beta= 0.40
     Davidson diagonalization with overlap
     c_bands:  1 eigenvalues not converged
     ethr =  1.00E-06,  avg # of iterations = 20.0

[...]

     Writing output data file 20al_planar_2x2_vcr.save/
     NEW-OLD atomic charge density approx. for the potential

[...]

     Writing output data file 20al_planar_2x2_vcr.save/
     NEW-OLD atomic charge density approx. for the potential
     Check: negative starting charge=   -0.000121

[...]

     Writing output data file 20al_planar_2x2_vcr.save/
     Check: negative starting charge=   -0.000121
     NEW-OLD atomic charge density approx. for the potential
     Check: negative starting charge=   -0.000133

[...]

     WARNING: bfgs curvature condition failed, Theta= 0.946
     new trust radius        =       0.0459838204 bohr
     new conv_thr            =       0.0000010000 Ry

[...]

     CASE: enthalpy_new > enthalpy_old

[...]

     Total force =     0.000501     Total SCF correction =     0.000099
     SCF correction compared to forces is large: reduce conv_thr to get better values

[...]

     Total force =     0.000369     Total SCF correction =     0.000016

[...]

     Writing output data file 20al_planar_2x2_vcr.save/
     Check: negative starting charge=   -0.000131
     NEW-OLD atomic charge density approx. for the potential
     Check: negative starting charge=   -0.000131

     negative rho (up, down):  2.758E-08 0.000E+00
     extrapolated charge   92.99992, renormalised to   93.00000

[...]

     Writing output data file 20al_planar_2x2_vcr.save/
     Check: negative starting charge=   -0.000131
     NEW-OLD atomic charge density approx. for the potential
     Check: negative starting charge=   -0.000131
     extrapolated charge   92.99997, renormalised to   93.00000

[...]

     small trust_radius: resetting bfgs history

[...]

     number of scf cycles    = 285
     number of bfgs steps    = 283

     enthalpy old            =    -142.0902674655 Ry
     enthalpy new            =    -142.0902674669 Ry

     CASE: enthalpy_new < enthalpy_old

     WARNING: bfgs curvature condition failed, Theta= 0.978
     Message from routine bfgs:
     history already reset at previous step: stopping
     small trust_radius: resetting bfgs history

     new trust radius        =       0.0000148804 bohr
     new conv_thr            =       0.0000000100 Ry

     new unit-cell volume =  26631.59806 a.u.^3 (  3946.39562 Ang^3 )
     density =      0.39108 g/cm^3

[...]

ATOMIC_POSITIONS (angstrom)
Al      -0.358638281   4.144600218   0.000000000
Al       2.032584835   0.378224592   0.000000000
Al      -2.729973363   5.427862484   0.000000000
Al      -0.358871186   6.725080282   0.000000000
Al      -5.232215839   8.918703065   0.000000000
Al      -2.730242373   8.032714536   0.000000000
Al      -5.291937154  11.357658855   0.000000000
Al      -2.718323248  10.715473046   0.000000000
Al       2.030322250   2.822188578   0.000000000
Al       4.666580299   3.037920968   0.000000000
Al       2.054941961   5.264706682   0.000000000
Al       4.636774318   5.869016947   0.000000000
Al      -0.367548544   9.363437546   0.000000000
Al       2.107705123   7.704261593   0.000000000
Al      -2.694216703  13.526207770   0.000000000
Al      -0.392710316  12.104927553   0.000000000
Al       6.934164024   1.569374050   0.000000000
Al       9.579036698   1.606408743   0.000000000
Al       6.957712966   4.473393387   0.000000000
Al       4.618040366   8.566360383   0.000000000
Al       6.979781042   7.233030770   0.000000000
Al       2.212378841  12.583522165   0.000000000
Al       2.169475370  10.142714493   0.000000000
Al      11.969246192   0.325556864   0.000000000
Al      14.337229824   1.602815070   0.000000000
Al       9.571291526   4.050761759   0.000000000
Al      11.967759267   2.875733336   0.000000000
Al       6.986113926   9.882328726   0.000000000
Al       9.527983234   6.491774684   0.000000000
Al       4.612981611  11.179365703   0.000000000
Al       6.982661126  12.468711804   0.000000000

     Writing output data file 20al_planar_2x2_vcr.save/
     Check: negative starting charge=   -0.000131
     NEW-OLD atomic charge density approx. for the potential
     Check: negative starting charge=   -0.000131
     extrapolated charge   92.99999, renormalised to   93.00000

[...]

     Threshold (ethr) on eigenvalues was too large:
     Diagonalizing with lowered threshold

     Davidson diagonalization with overlap
     ethr =  2.16E-10,  avg # of iterations =  2.0

[...]

     bfgs converged in 286 scf cycles and 284 bfgs steps
     (criteria: energy <  1.0E-05 Ry, force <  1.0E-04Ry/Bohr, cell <  5.0E-05kbar)

     End of BFGS Geometry Optimization

     Final enthalpy =    -142.0902674643 Ry
Begin final coordinates
     new unit-cell volume =  26631.59806 a.u.^3 (  3946.39562 Ang^3 )
     density =      0.39108 g/cm^3

CELL_PARAMETERS (alat= 33.68096681)
   0.824527575   0.000641849   0.000000000
  -0.412833672   0.753023925   0.000000000
   0.000000000   0.000000000   1.122132950

ATOMIC_POSITIONS (angstrom)
Al      -0.358638281   4.144600218   0.000000000
Al       2.032584835   0.378224592   0.000000000
Al      -2.729973363   5.427862484   0.000000000
Al      -0.358871186   6.725080282   0.000000000
Al      -5.232215839   8.918703065   0.000000000
Al      -2.730242373   8.032714536   0.000000000
Al      -5.291937154  11.357658855   0.000000000
Al      -2.718323248  10.715473046   0.000000000
Al       2.030322250   2.822188578   0.000000000
Al       4.666580299   3.037920968   0.000000000
Al       2.054941961   5.264706682   0.000000000
Al       4.636774318   5.869016947   0.000000000
Al      -0.367548544   9.363437546   0.000000000
Al       2.107705123   7.704261593   0.000000000
Al      -2.694216703  13.526207770   0.000000000
Al      -0.392710316  12.104927553   0.000000000
Al       6.934164024   1.569374050   0.000000000
Al       9.579036698   1.606408743   0.000000000
Al       6.957712966   4.473393387   0.000000000
Al       4.618040366   8.566360383   0.000000000
Al       6.979781042   7.233030770   0.000000000
Al       2.212378841  12.583522165   0.000000000
Al       2.169475370  10.142714493   0.000000000
Al      11.969246192   0.325556864   0.000000000
Al      14.337229824   1.602815070   0.000000000
Al       9.571291526   4.050761759   0.000000000
Al      11.967759267   2.875733336   0.000000000
Al       6.986113926   9.882328726   0.000000000
Al       9.527983234   6.491774684   0.000000000
Al       4.612981611  11.179365703   0.000000000
Al       6.982661126  12.468711804   0.000000000
End final coordinates

     Writing output data file 20al_planar_2x2_vcr.save/

     A final scf calculation at the relaxed structure.
     The G-vectors are recalculated for the final unit cell
     Results may differ from those at the preceding step.

     bravais-lattice index     =            4
     lattice parameter (alat)  =      33.6810  a.u.
     unit-cell volume          =   26631.5981 (a.u.)^3
     number of atoms/cell      =           31
     number of atomic types    =            1
     number of electrons       =        93.00
     number of Kohn-Sham states=           56
     kinetic-energy cutoff     =      80.0000  Ry
     charge density cutoff     =     320.0000  Ry
     convergence threshold     =      1.0E-08
     mixing beta               =       0.4000
     number of iterations used =            8  plain     mixing
     Exchange-correlation      = PBE ( 1  4  3  4 0 0)

     celldm(1)=  33.680967  celldm(2)=   0.000000  celldm(3)=   1.122133
     celldm(4)=   0.000000  celldm(5)=   0.000000  celldm(6)=   0.000000

     crystal axes: (cart. coord. in units of alat)
               a(1) = (   0.824528   0.000642   0.000000 )
               a(2) = (  -0.412834   0.753024   0.000000 )
               a(3) = (   0.000000   0.000000   1.122133 )

     reciprocal axes: (cart. coord. in units 2 pi/alat)
               b(1) = (  1.212298  0.664624  0.000000 )
               b(2) = ( -0.001033  1.327413  0.000000 )
               b(3) = (  0.000000  0.000000  0.891160 )

     PseudoPot. # 1 for Al read from file:
     ./Al.upf
     MD5 check sum: 4974d48a734c9d7d1eb6780a1419d19d
     Pseudo is Norm-conserving + core correction, Zval =  3.0
     Generated using ONCVPSP code by D. R. Hamann
     Using radial grid of 1876 points,  6 beta functions with:
                l(1) =   0
                l(2) =   0
                l(3) =   1
                l(4) =   1
                l(5) =   2
                l(6) =   2

     atomic species   valence    mass     pseudopotential
        Al             3.00    29.98200     Al( 1.00)

      2 Sym. Ops. (no inversion) found

   Cartesian axes

     site n.     atom                  positions (alat units)
         1           Al  tau(   1) = (  -0.0201220   0.2325396   0.0000000  )
         2           Al  tau(   2) = (   0.1140415   0.0212209   0.0000000  )
         3           Al  tau(   3) = (  -0.1531697   0.3045392   0.0000000  )
         4           Al  tau(   4) = (  -0.0201351   0.3773217   0.0000000  )
         5           Al  tau(   5) = (  -0.2935621   0.5003985   0.0000000  )
         6           Al  tau(   6) = (  -0.1531847   0.4506887   0.0000000  )
         7           Al  tau(   7) = (  -0.2969129   0.6372402   0.0000000  )
         8           Al  tau(   8) = (  -0.1525160   0.6012093   0.0000000  )
         9           Al  tau(   9) = (   0.1139146   0.1583435   0.0000000  )
        10           Al  tau(  10) = (   0.2618262   0.1704476   0.0000000  )
        11           Al  tau(  11) = (   0.1152959   0.2953850   0.0000000  )
        12           Al  tau(  12) = (   0.2601539   0.3292909   0.0000000  )
        13           Al  tau(  13) = (  -0.0206219   0.5253511   0.0000000  )
        14           Al  tau(  14) = (   0.1182563   0.4322603   0.0000000  )
        15           Al  tau(  15) = (  -0.1511635   0.7589102   0.0000000  )
        16           Al  tau(  16) = (  -0.0220337   0.6791669   0.0000000  )
        17           Al  tau(  17) = (   0.3890527   0.0880523   0.0000000  )
        18           Al  tau(  18) = (   0.5374476   0.0901302   0.0000000  )
        19           Al  tau(  19) = (   0.3903739   0.2509871   0.0000000  )
        20           Al  tau(  20) = (   0.2591028   0.4806298   0.0000000  )
        21           Al  tau(  21) = (   0.3916121   0.4058211   0.0000000  )
        22           Al  tau(  22) = (   0.1241292   0.7060192   0.0000000  )
        23           Al  tau(  23) = (   0.1217220   0.5690737   0.0000000  )
        24           Al  tau(  24) = (   0.6715543   0.0182659   0.0000000  )
        25           Al  tau(  25) = (   0.8044139   0.0899286   0.0000000  )
        26           Al  tau(  26) = (   0.5370131   0.2272747   0.0000000  )
        27           Al  tau(  27) = (   0.6714709   0.1613478   0.0000000  )
        28           Al  tau(  28) = (   0.3919674   0.5544643   0.0000000  )
        29           Al  tau(  29) = (   0.5345832   0.3642317   0.0000000  )
        30           Al  tau(  30) = (   0.2588189   0.6272367   0.0000000  )
        31           Al  tau(  31) = (   0.3917737   0.6995776   0.0000000  )

     number of k points=     1  Methfessel-Paxton smearing, width (Ry)=  0.0500
                       cart. coord. in units 2pi/alat
        k(    1) = (   0.0000000   0.0000000   0.0000000), wk =   2.0000000

     Initial potential from superposition of free atoms

     starting charge   92.92414, renormalised to   93.00000

     negative rho (up, down):  7.237E-05 0.000E+00
     Starting wfcs are  124 randomized atomic wfcs

     Self-consistent Calculation

     iteration #  1     ecut=    80.00 Ry     beta= 0.40
     Davidson diagonalization with overlap
     c_bands:  2 eigenvalues not converged
     ethr =  1.00E-06,  avg # of iterations = 20.0

[...]

     negative rho (up, down):  1.451E-08 0.000E+00

[...]

     total energy              =    -142.09000493 Ry
     Harris-Foulkes estimate   =    -142.09000494 Ry
     estimated scf accuracy    <       0.00000001 Ry

     iteration # 18     ecut=    80.00 Ry     beta= 0.40
     Davidson diagonalization with overlap
     ethr =  1.29E-11,  avg # of iterations =  6.0

     End of self-consistent calculation

          k = 0.0000 0.0000 0.0000 (321809 PWs)   bands (ev):

   -11.6185 -10.9194 -10.8741 -10.7215 -10.7010 -10.4629 -10.3215  -9.1360
    -9.1350  -9.0537  -9.0521  -9.0082  -8.5664  -8.2623  -8.2609  -8.2165
    -8.2102  -7.7558  -7.7291  -6.2020  -6.2015  -6.0334  -6.0330  -5.8456
    -5.8452  -5.6703  -5.5741  -5.4002  -5.3994  -5.0333  -4.9254  -4.8656
    -4.4003  -4.3996  -4.1616  -4.1400  -4.1388  -4.1354  -4.0251  -3.9936
    -3.8694  -3.7867  -3.6045  -3.6025  -2.4561  -2.4550  -2.4072  -2.4059
    -2.3714  -2.0117  -1.9372  -1.9363  -1.7015  -1.7009  -1.6754  -1.6744

     the Fermi energy is    -2.4299 ev

!    total energy              =    -142.09000492 Ry
     Harris-Foulkes estimate   =    -142.09000492 Ry
     estimated scf accuracy    <          5.0E-09 Ry

     The total energy is the sum of the following terms:

     one-electron contribution =    -689.31861553 Ry
     hartree contribution      =     353.47150575 Ry
     xc contribution           =     -63.69370271 Ry
     ewald contribution        =     257.48591509 Ry
     smearing contrib. (-TS)   =      -0.03510751 Ry

     convergence has been achieved in  18 iterations

     Forces acting on atoms (cartesian axes, Ry/au):

     atom    1 type  1   force =     0.00000034    0.00000439    0.00000000
     atom    2 type  1   force =     0.00000006   -0.00000826    0.00000000
     atom    3 type  1   force =     0.00000238    0.00000910    0.00000000
     atom    4 type  1   force =    -0.00001206    0.00000486    0.00000000
     atom    5 type  1   force =    -0.00000467   -0.00000161    0.00000000
     atom    6 type  1   force =     0.00000890    0.00000290    0.00000000
     atom    7 type  1   force =     0.00000492    0.00001098    0.00000000
     atom    8 type  1   force =     0.00000292   -0.00000370    0.00000000
     atom    9 type  1   force =    -0.00000051    0.00000042    0.00000000
     atom   10 type  1   force =     0.00000144   -0.00000011    0.00000000
     atom   11 type  1   force =    -0.00000294   -0.00000765    0.00000000
     atom   12 type  1   force =     0.00001068    0.00000030    0.00000000
     atom   13 type  1   force =    -0.00001652    0.00000476    0.00000000
     atom   14 type  1   force =     0.00000418    0.00000263    0.00000000
     atom   15 type  1   force =     0.00000241   -0.00000336    0.00000000
     atom   16 type  1   force =     0.00000190   -0.00000064    0.00000000
     atom   17 type  1   force =    -0.00000762   -0.00000167    0.00000000
     atom   18 type  1   force =     0.00000243    0.00000182    0.00000000
     atom   19 type  1   force =    -0.00000426    0.00001024    0.00000000
     atom   20 type  1   force =     0.00000599   -0.00000123    0.00000000
     atom   21 type  1   force =     0.00000059   -0.00000806    0.00000000
     atom   22 type  1   force =    -0.00000325   -0.00000120    0.00000000
     atom   23 type  1   force =    -0.00000115    0.00000042    0.00000000
     atom   24 type  1   force =     0.00000268    0.00000527    0.00000000
     atom   25 type  1   force =     0.00000535   -0.00000400    0.00000000
     atom   26 type  1   force =    -0.00000465   -0.00000256    0.00000000
     atom   27 type  1   force =     0.00000011    0.00000159    0.00000000
     atom   28 type  1   force =    -0.00000247   -0.00000806    0.00000000
     atom   29 type  1   force =     0.00000016    0.00000192    0.00000000
     atom   30 type  1   force =     0.00000246   -0.00000122    0.00000000
     atom   31 type  1   force =     0.00000022   -0.00000827    0.00000000

     Total force =     0.000041     Total SCF correction =     0.000072
     SCF correction compared to forces is large: reduce conv_thr to get better values

     Computing stress (Cartesian axis) and pressure

          total   stress  (Ry/bohr**3)                   (kbar)     P=    0.00
   0.00000004   0.00000000   0.00000000          0.01      0.00      0.00
   0.00000000   0.00000002   0.00000000          0.00      0.00      0.00
   0.00000000   0.00000000  -0.00000002          0.00      0.00     -0.00

     Writing output data file 20al_planar_2x2_vcr.save/

     General routines

     Parallel routines

   This run was terminated on:   8:59:37  27Nov2020

   JOB DONE.