     Program PWSCF v.6.3MaX starts on 25Nov2020 at 21:29:34

     R & G space division:  proc/nbgrp/npool/nimage =       8
     Waiting for input...
     Reading input from standard input

     Current dimensions of program PWSCF are:
     Max number of different atomic species (ntypx) = 10
     Max number of k-points (npk) =  40000
     Max angular momentum in pseudopotentials (lmaxx) =  3

     Subspace diagonalization in iterative solution of the eigenvalue problem:
     a serial algorithm will be used

     Message from routine find_sym:
     Not a group! Trying with lower acceptance parameter...
     Message from routine find_sym:
     Symmetry operations form a group

     bravais-lattice index     =            4
     lattice parameter (alat)  =      33.6810  a.u.
     unit-cell volume          =   37130.3117 (a.u.)^3
     number of atoms/cell      =           31
     number of atomic types    =            1
     number of electrons       =        93.00
     number of Kohn-Sham states=           56
     kinetic-energy cutoff     =      80.0000  Ry
     charge density cutoff     =     320.0000  Ry
     convergence threshold     =      1.0E-06
     mixing beta               =       0.4000
     number of iterations used =            8  plain     mixing
     Exchange-correlation      = PBE ( 1  4  3  4 0 0)
     nstep                     =          300

     celldm(1)=  33.680967  celldm(2)=   0.000000  celldm(3)=   1.122133
     celldm(4)=   0.000000  celldm(5)=   0.000000  celldm(6)=   0.000000

     crystal axes: (cart. coord. in units of alat)
               a(1) = (   1.000000   0.000000   0.000000 )
               a(2) = (  -0.500000   0.866025   0.000000 )
               a(3) = (   0.000000   0.000000   1.122133 )

     reciprocal axes: (cart. coord. in units 2 pi/alat)
               b(1) = (  1.000000  0.577350  0.000000 )
               b(2) = (  0.000000  1.154701  0.000000 )
               b(3) = (  0.000000  0.000000  0.891160 )

     PseudoPot. # 1 for Al read from file:
     ./Al.upf
     MD5 check sum: 4974d48a734c9d7d1eb6780a1419d19d
     Pseudo is Norm-conserving + core correction, Zval =  3.0
     Generated using ONCVPSP code by D. R. Hamann
     Using radial grid of 1876 points,  6 beta functions with:
                l(1) =   0
                l(2) =   0
                l(3) =   1
                l(4) =   1
                l(5) =   2
                l(6) =   2

     atomic species   valence    mass     pseudopotential
        Al             3.00    29.98200     Al( 1.00)

      2 Sym. Ops. (no inversion) found

   Cartesian axes

     site n.     atom                  positions (alat units)
         1           Al  tau(   1) = (  -0.0000000   0.1443393   0.0000000  )
         2           Al  tau(   2) = (   0.1250015   0.0721696   0.0000000  )
         3           Al  tau(   3) = (  -0.1249997   0.3608472   0.0000000  )
         4           Al  tau(   4) = (   0.0000018   0.2886775   0.0000000  )
         5           Al  tau(   5) = (  -0.2499994   0.5773550   0.0000000  )
         6           Al  tau(   6) = (  -0.1249979   0.5051854   0.0000000  )
         7           Al  tau(   7) = (  -0.3749991   0.7938629   0.0000000  )
         8           Al  tau(   8) = (  -0.2499976   0.7216932   0.0000000  )
         9           Al  tau(   9) = (   0.3750027   0.0721706   0.0000000  )
        10           Al  tau(  10) = (   0.1250014   0.3608482   0.0000000  )
        11           Al  tau(  11) = (   0.2500030   0.2886785   0.0000000  )
        12           Al  tau(  12) = (   0.0000017   0.5773560   0.0000000  )
        13           Al  tau(  13) = (   0.1250033   0.5051864   0.0000000  )
        14           Al  tau(  14) = (  -0.1249980   0.7938639   0.0000000  )
        15           Al  tau(  15) = (   0.0000036   0.7216942   0.0000000  )
        16           Al  tau(  16) = (   0.5000023   0.1443413   0.0000000  )
        17           Al  tau(  17) = (   0.6250038   0.0721717   0.0000000  )
        18           Al  tau(  18) = (   0.3750026   0.3608492   0.0000000  )
        19           Al  tau(  19) = (   0.5000041   0.2886795   0.0000000  )
        20           Al  tau(  20) = (   0.2500029   0.5773571   0.0000000  )
        21           Al  tau(  21) = (   0.3750044   0.5051874   0.0000000  )
        22           Al  tau(  22) = (   0.1250032   0.7938649   0.0000000  )
        23           Al  tau(  23) = (   0.2500047   0.7216953   0.0000000  )
        24           Al  tau(  24) = (   0.7500035   0.1443423   0.0000000  )
        25           Al  tau(  25) = (   0.8750050   0.0721727   0.0000000  )
        26           Al  tau(  26) = (   0.6250038   0.3608502   0.0000000  )
        27           Al  tau(  27) = (   0.7500053   0.2886805   0.0000000  )
        28           Al  tau(  28) = (   0.5000041   0.5773581   0.0000000  )
        29           Al  tau(  29) = (   0.6250056   0.5051884   0.0000000  )
        30           Al  tau(  30) = (   0.3750044   0.7938660   0.0000000  )
        31           Al  tau(  31) = (   0.5000059   0.7216963   0.0000000  )

     number of k points=     1  Methfessel-Paxton smearing, width (Ry)=  0.0500
                       cart. coord. in units 2pi/alat
        k(    1) = (   0.0000000   0.0000000   0.0000000), wk =   2.0000000

     Initial potential from superposition of free atoms

     starting charge   92.92414, renormalised to   93.00000

     negative rho (up, down):  9.278E-05 0.000E+00
     Starting wfcs are  124 randomized atomic wfcs

     Self-consistent Calculation

     iteration #  1     ecut=    80.00 Ry     beta= 0.40
     Davidson diagonalization with overlap
     ethr =  1.00E-02,  avg # of iterations =  2.0

     total energy              =    -140.64202644 Ry
     Harris-Foulkes estimate   =    -141.23595657 Ry
     estimated scf accuracy    <       1.54872553 Ry

[...]

     End of self-consistent calculation

          k = 0.0000 0.0000 0.0000 (448403 PWs)   bands (ev):

    -9.9529  -9.4484  -9.4329  -9.4329  -9.4258  -9.4258  -9.1458  -8.4048
    -8.4047  -8.3881  -8.3880  -8.3797  -8.3033  -8.2570  -8.2569  -7.5864
    -6.9324  -6.9323  -6.8233  -6.4865  -6.4772  -6.4772  -6.3701  -6.3700
    -5.4639  -4.8435  -4.8433  -4.8369  -4.7356  -4.7355  -4.4780  -4.4680
    -4.4428  -4.4428  -4.1224  -4.1223  -3.9779  -3.4712  -3.4687  -3.4686
    -3.4576  -3.4575  -3.4017  -3.2744  -3.2743  -3.2223  -3.2073  -2.9743
    -2.9653  -2.9652  -2.9389  -2.5198  -2.5196  -2.4491  -2.4486  -2.4314

     the Fermi energy is    -3.0910 ev

!    total energy              =    -140.93611219 Ry
     Harris-Foulkes estimate   =    -140.93611234 Ry
     estimated scf accuracy    <       0.00000016 Ry

     The total energy is the sum of the following terms:

     one-electron contribution =    -502.03642519 Ry
     hartree contribution      =     259.76349729 Ry
     xc contribution           =     -61.33576539 Ry
     ewald contribution        =     162.75357038 Ry
     smearing contrib. (-TS)   =      -0.08098928 Ry

     convergence has been achieved in  19 iterations

     Forces acting on atoms (cartesian axes, Ry/au):

     atom    1 type  1   force =    -0.00252988    0.00222744    0.00000000
     atom    2 type  1   force =     0.01311778    0.00759820    0.00000000
     atom    3 type  1   force =    -0.00107255    0.00067607    0.00000000
     atom    4 type  1   force =     0.00111031   -0.00065310    0.00000000
     atom    5 type  1   force =     0.00002774   -0.00126693    0.00000000
     atom    6 type  1   force =     0.00046155    0.00025576    0.00000000
     atom    7 type  1   force =     0.00064772   -0.00332361    0.00000000
     atom    8 type  1   force =    -0.00000151    0.00127128    0.00000000
     atom    9 type  1   force =    -0.01309033    0.00760854    0.00000000
     atom   10 type  1   force =    -0.00317176    0.00112272    0.00000000
     atom   11 type  1   force =    -0.00000064   -0.01513276    0.00000000
     atom   12 type  1   force =     0.00202216    0.00113681    0.00000000
     atom   13 type  1   force =    -0.00158907   -0.00519253    0.00000000
     atom   14 type  1   force =    -0.00059721   -0.00334511    0.00000000
     atom   15 type  1   force =    -0.00530398    0.00124953    0.00000000
     atom   16 type  1   force =     0.00253149    0.00220019    0.00000000
     atom   17 type  1   force =    -0.00369811    0.00398710    0.00000000
     atom   18 type  1   force =     0.00316775    0.00111329    0.00000000
     atom   19 type  1   force =    -0.00112308   -0.00066554    0.00000000
     atom   20 type  1   force =    -0.00001624    0.00216243    0.00000000
     atom   21 type  1   force =     0.00158108   -0.00518987    0.00000000
     atom   22 type  1   force =     0.00187376   -0.00110608    0.00000000
     atom   23 type  1   force =    -0.00000654   -0.00000556    0.00000000
     atom   24 type  1   force =     0.00000351   -0.00235036    0.00000000
     atom   25 type  1   force =     0.00367374    0.00398011    0.00000000
     atom   26 type  1   force =     0.00113053    0.00065077    0.00000000
     atom   27 type  1   force =    -0.00004239   -0.00052804    0.00000000
     atom   28 type  1   force =    -0.00202386    0.00116192    0.00000000
     atom   29 type  1   force =    -0.00047146    0.00023980    0.00000000
     atom   30 type  1   force =    -0.00185349   -0.00111054    0.00000000
     atom   31 type  1   force =     0.00524297    0.00122806    0.00000000

     Total force =     0.031208     Total SCF correction =     0.000314

     Computing stress (Cartesian axis) and pressure

          total   stress  (Ry/bohr**3)                   (kbar)     P=   -0.57
  -0.00000579   0.00000002   0.00000000         -0.85      0.00      0.00
   0.00000002  -0.00000579   0.00000000          0.00     -0.85      0.00
   0.00000000   0.00000000   0.00000001          0.00      0.00      0.00

     BFGS Geometry Optimization

     number of scf cycles    =   1
     number of bfgs steps    =   0

     enthalpy new            =    -140.9361121932 Ry

     new trust radius        =       0.0151594480 bohr
     new conv_thr            =       0.0000010000 Ry

     new unit-cell volume =  37119.56808 a.u.^3 (  5500.55241 Ang^3 )
     density =      0.28059 g/cm^3

CELL_PARAMETERS (alat= 33.68096681)
   0.999855308   0.000000392   0.000000000
  -0.499927315   0.865899913   0.000000000
   0.000000000   0.000000000   1.122132950

ATOMIC_POSITIONS (angstrom)
Al      -0.001338141   2.573394210   0.000000000
Al       2.234545510   1.290128418   0.000000000
Al      -2.228137835   6.430877317   0.000000000
Al       0.000621576   5.144066586   0.000000000
Al      -4.455126445  10.288153212   0.000000000
Al      -2.227292455   9.002851401   0.000000000
Al      -6.682369188  14.145368960   0.000000000
Al      -4.455108237  12.861692647   0.000000000
Al       6.675854859   1.290153820   0.000000000
Al       2.225927546   6.431133582   0.000000000
Al       4.455209841   5.136425325   0.000000000
Al       0.001104879  10.289444971   0.000000000
Al       2.226798636   8.999988644   0.000000000
Al      -2.227851806  14.145377523   0.000000000
[...]
     new conv_thr            =       0.0000010000 Ry

[...]

     iteration #  3     ecut=    80.00 Ry     beta= 0.40
     Davidson diagonalization with overlap
     c_bands:  1 eigenvalues not converged
     ethr =  8.28E-07,  avg # of iterations = 20.0

[...]

     Writing output data file 9al_planar_2x2_vcr.save/
     NEW-OLD atomic charge density approx. for the potential

[...]

     Writing output data file 9al_planar_2x2_vcr.save/
     NEW-OLD atomic charge density approx. for the potential
     Check: negative starting charge=   -0.000121

[...]

     Writing output data file 9al_planar_2x2_vcr.save/
     Check: negative starting charge=   -0.000121
     NEW-OLD atomic charge density approx. for the potential
     Check: negative starting charge=   -0.000133

[...]

     CASE: enthalpy_new > enthalpy_old

[...]

     WARNING: bfgs curvature condition failed, Theta= 0.924
     new trust radius        =       0.1699824203 bohr
     new conv_thr            =       0.0000010000 Ry

[...]

     iteration #  1     ecut=    80.00 Ry     beta= 0.40
     Davidson diagonalization with overlap
     c_bands:  1 eigenvalues not converged
     ethr =  1.00E-06,  avg # of iterations = 20.0

[...]

     Total force =     0.000743     Total SCF correction =     0.000076
     SCF correction compared to forces is large: reduce conv_thr to get better values

[...]

     Total force =     0.000629     Total SCF correction =     0.000027

[...]

     negative rho (up, down):  1.820E-08 0.000E+00
     extrapolated charge   92.99951, renormalised to   93.00000

[...]

     Writing output data file 9al_planar_2x2_vcr.save/
     Check: negative starting charge=   -0.000131
     NEW-OLD atomic charge density approx. for the potential
     Check: negative starting charge=   -0.000131
     extrapolated charge   93.00010, renormalised to   93.00000

[...]

     Writing output data file 9al_planar_2x2_vcr.save/
     Check: negative starting charge=   -0.000131
     NEW-OLD atomic charge density approx. for the potential
     Check: negative starting charge=   -0.000131
     extrapolated charge   93.00029, renormalised to   93.00000

[...]

     CASE: enthalpy_new < enthalpy_old

     small trust_radius: resetting bfgs history

     new trust radius        =       0.0000190337 bohr
     new conv_thr            =       0.0000000100 Ry

[...]

     number of scf cycles    = 226
     number of bfgs steps    = 224

     enthalpy old            =    -142.2701674875 Ry
     enthalpy new            =    -142.2701674863 Ry

     CASE: enthalpy_new > enthalpy_old

     new trust radius        =       0.0000070063 bohr

     trust_radius < trust_radius_min

     resetting bfgs history

     Message from routine bfgs:
     history already reset at previous step: stopping
     new conv_thr            =       0.0000000100 Ry

     new unit-cell volume =  26092.82324 a.u.^3 (  3866.55743 Ang^3 )
     density =      0.39916 g/cm^3

[...]

ATOMIC_POSITIONS (angstrom)
Al       1.563808559   2.853738448   0.000000000
Al       2.530090062   0.350309608   0.000000000
Al      -2.053836461   5.772133633   0.000000000
Al       0.597416610   5.357247701   0.000000000
Al      -3.020129682   8.275665881   0.000000000
Al      -0.368948898   7.860777471   0.000000000
Al      -6.637596166  11.193963155   0.000000000
Al      -5.671320413   8.690541333   0.000000000
Al       5.181326846  -0.064549152   0.000000000
Al       3.248666640   4.942314135   0.000000000
Al       4.215080453   2.438885817   0.000000000
Al       1.316008199   9.949261142   0.000000000
Al       2.282295594   7.445777814   0.000000000
Al      -3.986409431  10.779174782   0.000000000
Al      -1.335186110  10.364263065   0.000000000
Al       6.866381414   2.023939769   0.000000000
Al       9.517588887   1.608958235   0.000000000
Al       5.899976889   4.527395269   0.000000000
Al       8.551272198   4.112485253   0.000000000
Al       3.967295966   9.534369103   0.000000000
Al       4.933559382   7.030875415   0.000000000
Al       0.349840092  12.452761671   0.000000000
Al       3.001084701  12.037792164   0.000000000
Al      12.168817288   1.194108688   0.000000000
Al      13.853755829   3.282664083   0.000000000
Al      10.236103788   6.201086140   0.000000000
Al      11.202505069   3.697540349   0.000000000
Al       5.652321670  11.622954549   0.000000000
Al       7.584827539   6.615980540   0.000000000
Al       7.337297231  13.711486297   0.000000000
Al       6.618491257   9.119447561   0.000000000

     Writing output data file 9al_planar_2x2_vcr.save/
     Check: negative starting charge=   -0.000131
     NEW-OLD atomic charge density approx. for the potential
     Check: negative starting charge=   -0.000131

[...]

     Threshold (ethr) on eigenvalues was too large:
     Diagonalizing with lowered threshold

     Davidson diagonalization with overlap
     ethr =  4.08E-10,  avg # of iterations =  1.0

[...]

     bfgs converged in 227 scf cycles and 224 bfgs steps
     (criteria: energy <  1.0E-05 Ry, force <  1.0E-04Ry/Bohr, cell <  5.0E-05kbar)

     End of BFGS Geometry Optimization

     Final enthalpy =    -142.2701674914 Ry
Begin final coordinates
     new unit-cell volume =  26092.82324 a.u.^3 (  3866.55743 Ang^3 )
     density =      0.39916 g/cm^3

CELL_PARAMETERS (alat= 33.68096681)
   0.838295874   0.000785996   0.000000000
  -0.419830573   0.725588241   0.000000000
   0.000000000   0.000000000   1.122132950

ATOMIC_POSITIONS (angstrom)
Al       1.563808559   2.853738448   0.000000000
Al       2.530090062   0.350309608   0.000000000
Al      -2.053836461   5.772133633   0.000000000
Al       0.597416610   5.357247701   0.000000000
Al      -3.020129682   8.275665881   0.000000000
Al      -0.368948898   7.860777471   0.000000000
Al      -6.637596166  11.193963155   0.000000000
Al      -5.671320413   8.690541333   0.000000000
Al       5.181326846  -0.064549152   0.000000000
Al       3.248666640   4.942314135   0.000000000
Al       4.215080453   2.438885817   0.000000000
Al       1.316008199   9.949261142   0.000000000
Al       2.282295594   7.445777814   0.000000000
Al      -3.986409431  10.779174782   0.000000000
Al      -1.335186110  10.364263065   0.000000000
Al       6.866381414   2.023939769   0.000000000
Al       9.517588887   1.608958235   0.000000000
Al       5.899976889   4.527395269   0.000000000
Al       8.551272198   4.112485253   0.000000000
Al       3.967295966   9.534369103   0.000000000
Al       4.933559382   7.030875415   0.000000000
Al       0.349840092  12.452761671   0.000000000
Al       3.001084701  12.037792164   0.000000000
Al      12.168817288   1.194108688   0.000000000
Al      13.853755829   3.282664083   0.000000000
Al      10.236103788   6.201086140   0.000000000
Al      11.202505069   3.697540349   0.000000000
Al       5.652321670  11.622954549   0.000000000
Al       7.584827539   6.615980540   0.000000000
Al       7.337297231  13.711486297   0.000000000
Al       6.618491257   9.119447561   0.000000000
End final coordinates

     Writing output data file 9al_planar_2x2_vcr.save/

     A final scf calculation at the relaxed structure.
     The G-vectors are recalculated for the final unit cell
     Results may differ from those at the preceding step.

     bravais-lattice index     =            4
     lattice parameter (alat)  =      33.6810  a.u.
     unit-cell volume          =   26092.8232 (a.u.)^3
     number of atoms/cell      =           31
     number of atomic types    =            1
     number of electrons       =        93.00
     number of Kohn-Sham states=           56
     kinetic-energy cutoff     =      80.0000  Ry
     charge density cutoff     =     320.0000  Ry
     convergence threshold     =      1.0E-08
     mixing beta               =       0.4000
     number of iterations used =            8  plain     mixing
     Exchange-correlation      = PBE ( 1  4  3  4 0 0)

     celldm(1)=  33.680967  celldm(2)=   0.000000  celldm(3)=   1.122133
     celldm(4)=   0.000000  celldm(5)=   0.000000  celldm(6)=   0.000000

     crystal axes: (cart. coord. in units of alat)
               a(1) = (   0.838296   0.000786   0.000000 )
               a(2) = (  -0.419831   0.725588   0.000000 )
               a(3) = (   0.000000   0.000000   1.122133 )

     reciprocal axes: (cart. coord. in units 2 pi/alat)
               b(1) = (  1.192249  0.689844  0.000000 )
               b(2) = ( -0.001292  1.377445  0.000000 )
               b(3) = (  0.000000  0.000000  0.891160 )

     PseudoPot. # 1 for Al read from file:
     ./Al.upf
     MD5 check sum: 4974d48a734c9d7d1eb6780a1419d19d
     Pseudo is Norm-conserving + core correction, Zval =  3.0
     Generated using ONCVPSP code by D. R. Hamann
     Using radial grid of 1876 points,  6 beta functions with:
                l(1) =   0
                l(2) =   0
                l(3) =   1
                l(4) =   1
                l(5) =   2
                l(6) =   2

     atomic species   valence    mass     pseudopotential
        Al             3.00    29.98200     Al( 1.00)

      2 Sym. Ops. (no inversion) found

   Cartesian axes

     site n.     atom                  positions (alat units)
         1           Al  tau(   1) = (   0.0877401   0.1601137   0.0000000  )
         2           Al  tau(   2) = (   0.1419549   0.0196547   0.0000000  )
         3           Al  tau(   3) = (  -0.1152339   0.3238551   0.0000000  )
         4           Al  tau(   4) = (   0.0335190   0.3005772   0.0000000  )
         5           Al  tau(   5) = (  -0.1694494   0.4643199   0.0000000  )
         6           Al  tau(   6) = (  -0.0207005   0.4410419   0.0000000  )
         7           Al  tau(   7) = (  -0.3724133   0.6280557   0.0000000  )
         8           Al  tau(   8) = (  -0.3181988   0.4875971   0.0000000  )
         9           Al  tau(   9) = (   0.2907069  -0.0036216   0.0000000  )
        10           Al  tau(  10) = (   0.1822718   0.2772967   0.0000000  )
        11           Al  tau(  11) = (   0.2364940   0.1368377   0.0000000  )
        12           Al  tau(  12) = (   0.0738368   0.5582197   0.0000000  )
        13           Al  tau(  13) = (   0.1280520   0.4177576   0.0000000  )
        14           Al  tau(  14) = (  -0.2236641   0.6047834   0.0000000  )
        15           Al  tau(  15) = (  -0.0749128   0.5815041   0.0000000  )
        16           Al  tau(  16) = (   0.3852496   0.1135565   0.0000000  )
        17           Al  tau(  17) = (   0.5340000   0.0902733   0.0000000  )
        18           Al  tau(  18) = (   0.3310279   0.2540170   0.0000000  )
        19           Al  tau(  19) = (   0.4797832   0.2307378   0.0000000  )
        20           Al  tau(  20) = (   0.2225917   0.5349415   0.0000000  )
        21           Al  tau(  21) = (   0.2768055   0.3944788   0.0000000  )
        22           Al  tau(  22) = (   0.0196284   0.6986827   0.0000000  )
        23           Al  tau(  23) = (   0.1683808   0.6754002   0.0000000  )
        24           Al  tau(  24) = (   0.6827515   0.0669974   0.0000000  )
        25           Al  tau(  25) = (   0.7772878   0.1841793   0.0000000  )
        26           Al  tau(  26) = (   0.5743135   0.3479222   0.0000000  )
        27           Al  tau(  27) = (   0.6285350   0.2074566   0.0000000  )
        28           Al  tau(  28) = (   0.3171328   0.6521250   0.0000000  )
        29           Al  tau(  29) = (   0.4255592   0.3712005   0.0000000  )
        30           Al  tau(  30) = (   0.4116711   0.7693055   0.0000000  )
        31           Al  tau(  31) = (   0.3713414   0.5116616   0.0000000  )

     number of k points=     1  Methfessel-Paxton smearing, width (Ry)=  0.0500
                       cart. coord. in units 2pi/alat
        k(    1) = (   0.0000000   0.0000000   0.0000000), wk =   2.0000000

     Initial potential from superposition of free atoms

     starting charge   92.92414, renormalised to   93.00000

     negative rho (up, down):  7.270E-05 0.000E+00
     Starting wfcs are  124 randomized atomic wfcs

     Self-consistent Calculation

[...]

     negative rho (up, down):  2.781E-08 0.000E+00

[...]

     total energy              =    -142.26988400 Ry
     Harris-Foulkes estimate   =    -142.26988402 Ry
     estimated scf accuracy    <       0.00000013 Ry

     iteration # 13     ecut=    80.00 Ry     beta= 0.40
     Davidson diagonalization with overlap
     ethr =  1.36E-10,  avg # of iterations =  3.0

     End of self-consistent calculation

          k = 0.0000 0.0000 0.0000 (315207 PWs)   bands (ev):

   -11.6236 -10.7478 -10.7478 -10.7477 -10.7477 -10.7477 -10.7477  -9.0217
    -9.0216  -9.0216  -9.0216  -9.0216  -9.0216  -8.1738  -8.1738  -8.1738
    -8.1737  -8.1737  -8.1737  -5.7782  -5.7781  -5.7781  -5.7781  -5.7781
    -5.7781  -5.7076  -5.7076  -5.7075  -5.7075  -5.7075  -5.7075  -4.8691
    -4.0234  -4.0234  -4.0233  -4.0233  -4.0233  -4.0233  -3.7523  -3.7523
    -3.7522  -3.7522  -3.7521  -3.7521  -2.3346  -2.3346  -2.3345  -2.3345
    -2.3345  -2.3345  -1.8112  -1.8112  -1.8111  -1.8111  -1.8111  -1.8110

     the Fermi energy is    -2.4052 ev

!    total energy              =    -142.26988401 Ry
     Harris-Foulkes estimate   =    -142.26988401 Ry
     estimated scf accuracy    <          2.8E-09 Ry

     The total energy is the sum of the following terms:

     one-electron contribution =    -702.58136827 Ry
     hartree contribution      =     360.19373785 Ry
     xc contribution           =     -63.84992863 Ry
     ewald contribution        =     264.01434130 Ry
     smearing contrib. (-TS)   =      -0.04666627 Ry

     convergence has been achieved in  13 iterations

     Forces acting on atoms (cartesian axes, Ry/au):

     atom    1 type  1   force =     0.00000365    0.00000819    0.00000000
     atom    2 type  1   force =     0.00000388   -0.00000220    0.00000000
     atom    3 type  1   force =     0.00001262    0.00000548    0.00000000
     atom    4 type  1   force =    -0.00000030    0.00000390    0.00000000
     atom    5 type  1   force =     0.00000374   -0.00000014    0.00000000
     atom    6 type  1   force =     0.00000513   -0.00001360    0.00000000
     atom    7 type  1   force =    -0.00000315    0.00000849    0.00000000
     atom    8 type  1   force =    -0.00000916   -0.00000412    0.00000000
     atom    9 type  1   force =     0.00000130   -0.00000717    0.00000000
     atom   10 type  1   force =     0.00000605    0.00000324    0.00000000
     atom   11 type  1   force =    -0.00000301   -0.00000256    0.00000000
     atom   12 type  1   force =     0.00001419    0.00000492    0.00000000
     atom   13 type  1   force =     0.00000599    0.00000818    0.00000000
     atom   14 type  1   force =     0.00000982   -0.00000624    0.00000000
     atom   15 type  1   force =    -0.00000120   -0.00000228    0.00000000
     atom   16 type  1   force =    -0.00001030    0.00000248    0.00000000
     atom   17 type  1   force =    -0.00000169    0.00000647    0.00000000
     atom   18 type  1   force =     0.00000129    0.00000648    0.00000000
     atom   19 type  1   force =    -0.00000422    0.00000416    0.00000000
     atom   20 type  1   force =    -0.00000635   -0.00000492    0.00000000
     atom   21 type  1   force =     0.00000383   -0.00000117    0.00000000
     atom   22 type  1   force =     0.00000285   -0.00000178    0.00000000
     atom   23 type  1   force =    -0.00000342    0.00000477    0.00000000
     atom   24 type  1   force =    -0.00000804   -0.00000704    0.00000000
     atom   25 type  1   force =    -0.00001318    0.00000406    0.00000000
     atom   26 type  1   force =    -0.00000517   -0.00000760    0.00000000
     atom   27 type  1   force =    -0.00000904    0.00000679    0.00000000
     atom   28 type  1   force =    -0.00000761   -0.00000809    0.00000000
     atom   29 type  1   force =     0.00000584   -0.00000290    0.00000000
     atom   30 type  1   force =    -0.00000373   -0.00000175    0.00000000
     atom   31 type  1   force =     0.00000937   -0.00000403    0.00000000

     Total force =     0.000050     Total SCF correction =     0.000050
     SCF correction compared to forces is large: reduce conv_thr to get better values

     Computing stress (Cartesian axis) and pressure

          total   stress  (Ry/bohr**3)                   (kbar)     P=    0.00
   0.00000003   0.00000000   0.00000000          0.00      0.00      0.00
   0.00000000   0.00000005   0.00000000          0.00      0.01      0.00
   0.00000000   0.00000000  -0.00000002          0.00      0.00     -0.00

     Writing output data file 9al_planar_2x2_vcr.save/

     General routines

     Parallel routines

      37h

   This run was terminated on:  21: 7:25  26Nov2020

   JOB DONE.