     Program PWSCF v.6.3MaX starts on 25Nov2020 at 19:14: 2

     R & G space division:  proc/nbgrp/npool/nimage =       8
     Waiting for input...
     Reading input from standard input

     Current dimensions of program PWSCF are:
     Max number of different atomic species (ntypx) = 10
     Max number of k-points (npk) =  40000
     Max angular momentum in pseudopotentials (lmaxx) =  3

     Subspace diagonalization in iterative solution of the eigenvalue problem:
     a serial algorithm will be used

     bravais-lattice index     =            4
     lattice parameter (alat)  =      33.6810  a.u.
     unit-cell volume          =   37130.3117 (a.u.)^3
     number of atoms/cell      =           31
     number of atomic types    =            1
     number of electrons       =        93.00
     number of Kohn-Sham states=           56
     kinetic-energy cutoff     =      80.0000  Ry
     charge density cutoff     =     320.0000  Ry
     convergence threshold     =      1.0E-06
     mixing beta               =       0.4000
     number of iterations used =            8  plain     mixing
     Exchange-correlation      = PBE ( 1  4  3  4 0 0)
     nstep                     =          300

     celldm(1)=  33.680967  celldm(2)=   0.000000  celldm(3)=   1.122133
     celldm(4)=   0.000000  celldm(5)=   0.000000  celldm(6)=   0.000000

     crystal axes: (cart. coord. in units of alat)
               a(1) = (   1.000000   0.000000   0.000000 )
               a(2) = (  -0.500000   0.866025   0.000000 )
               a(3) = (   0.000000   0.000000   1.122133 )

     reciprocal axes: (cart. coord. in units 2 pi/alat)
               b(1) = (  1.000000  0.577350  0.000000 )
               b(2) = (  0.000000  1.154701  0.000000 )
               b(3) = (  0.000000  0.000000  0.891160 )

     PseudoPot. # 1 for Al read from file:
     ./Al.upf
     MD5 check sum: 4974d48a734c9d7d1eb6780a1419d19d
     Pseudo is Norm-conserving + core correction, Zval =  3.0
     Generated using ONCVPSP code by D. R. Hamann
     Using radial grid of 1876 points,  6 beta functions with:
                l(1) =   0
                l(2) =   0
                l(3) =   1
                l(4) =   1
                l(5) =   2
                l(6) =   2

     atomic species   valence    mass     pseudopotential
        Al             3.00    29.98200     Al( 1.00)

      2 Sym. Ops. (no inversion) found

   Cartesian axes

     site n.     atom                  positions (alat units)
         1           Al  tau(   1) = (  -0.0000000   0.1443393   0.0000000  )
         2           Al  tau(   2) = (   0.1250015   0.0721696   0.0000000  )
         3           Al  tau(   3) = (   0.0000018   0.2886775   0.0000000  )
         4           Al  tau(   4) = (  -0.2499994   0.5773550   0.0000000  )
         5           Al  tau(   5) = (  -0.1249979   0.5051854   0.0000000  )
         6           Al  tau(   6) = (  -0.3749991   0.7938629   0.0000000  )
         7           Al  tau(   7) = (  -0.2499976   0.7216932   0.0000000  )
         8           Al  tau(   8) = (   0.2500011   0.1443403   0.0000000  )
         9           Al  tau(   9) = (   0.3750027   0.0721706   0.0000000  )
        10           Al  tau(  10) = (   0.1250014   0.3608482   0.0000000  )
        11           Al  tau(  11) = (   0.2500030   0.2886785   0.0000000  )
        12           Al  tau(  12) = (   0.0000017   0.5773560   0.0000000  )
        13           Al  tau(  13) = (   0.1250033   0.5051864   0.0000000  )
        14           Al  tau(  14) = (  -0.1249980   0.7938639   0.0000000  )
        15           Al  tau(  15) = (   0.0000036   0.7216942   0.0000000  )
        16           Al  tau(  16) = (   0.5000023   0.1443413   0.0000000  )
        17           Al  tau(  17) = (   0.6250038   0.0721717   0.0000000  )
        18           Al  tau(  18) = (   0.3750026   0.3608492   0.0000000  )
        19           Al  tau(  19) = (   0.5000041   0.2886795   0.0000000  )
        20           Al  tau(  20) = (   0.2500029   0.5773571   0.0000000  )
        21           Al  tau(  21) = (   0.3750044   0.5051874   0.0000000  )
        22           Al  tau(  22) = (   0.1250032   0.7938649   0.0000000  )
        23           Al  tau(  23) = (   0.2500047   0.7216953   0.0000000  )
        24           Al  tau(  24) = (   0.7500035   0.1443423   0.0000000  )
        25           Al  tau(  25) = (   0.8750050   0.0721727   0.0000000  )
        26           Al  tau(  26) = (   0.6250038   0.3608502   0.0000000  )
        27           Al  tau(  27) = (   0.7500053   0.2886805   0.0000000  )
        28           Al  tau(  28) = (   0.5000041   0.5773581   0.0000000  )
        29           Al  tau(  29) = (   0.6250056   0.5051884   0.0000000  )
        30           Al  tau(  30) = (   0.3750044   0.7938660   0.0000000  )
        31           Al  tau(  31) = (   0.5000059   0.7216963   0.0000000  )

     number of k points=     1  Methfessel-Paxton smearing, width (Ry)=  0.0500
                       cart. coord. in units 2pi/alat
        k(    1) = (   0.0000000   0.0000000   0.0000000), wk =   2.0000000

     Initial potential from superposition of free atoms

     starting charge   92.92414, renormalised to   93.00000

     negative rho (up, down):  9.278E-05 0.000E+00
     Starting wfcs are  124 randomized atomic wfcs

     Self-consistent Calculation

     iteration #  1     ecut=    80.00 Ry     beta= 0.40
     Davidson diagonalization with overlap
     ethr =  1.00E-02,  avg # of iterations =  2.0

     total energy              =    -140.64194914 Ry
     Harris-Foulkes estimate   =    -141.23602976 Ry
     estimated scf accuracy    <       1.54905412 Ry

[...]

     End of self-consistent calculation

          k = 0.0000 0.0000 0.0000 (448403 PWs)   bands (ev):

    -9.9529  -9.4481  -9.4331  -9.4330  -9.4259  -9.4258  -9.1458  -8.4049
    -8.4048  -8.3880  -8.3880  -8.3797  -8.3035  -8.2568  -8.2568  -7.5866
    -6.9324  -6.9324  -6.8231  -6.4866  -6.4772  -6.4772  -6.3701  -6.3700
    -5.4640  -4.8434  -4.8433  -4.8369  -4.7358  -4.7356  -4.4781  -4.4681
    -4.4427  -4.4427  -4.1226  -4.1225  -3.9778  -3.4709  -3.4688  -3.4687
    -3.4577  -3.4577  -3.4016  -3.2744  -3.2744  -3.2223  -3.2074  -2.9744
    -2.9653  -2.9652  -2.9390  -2.5197  -2.5196  -2.4502  -2.4492  -2.4314

     the Fermi energy is    -3.0911 ev

!    total energy              =    -140.93611171 Ry
     Harris-Foulkes estimate   =    -140.93611180 Ry
     estimated scf accuracy    <       0.00000010 Ry

     The total energy is the sum of the following terms:

     one-electron contribution =    -502.03578053 Ry
     hartree contribution      =     259.76296167 Ry
     xc contribution           =     -61.33570141 Ry
     ewald contribution        =     162.75343587 Ry
     smearing contrib. (-TS)   =      -0.08102731 Ry

     convergence has been achieved in  19 iterations

     Forces acting on atoms (cartesian axes, Ry/au):

     atom    1 type  1   force =    -0.00063636   -0.00328545    0.00000000
     atom    2 type  1   force =    -0.00525373    0.00126011    0.00000000
     atom    3 type  1   force =    -0.01313867    0.00756711    0.00000000
     atom    4 type  1   force =    -0.00314456    0.00109494    0.00000000
     atom    5 type  1   force =    -0.00003979   -0.01515440    0.00000000
     atom    6 type  1   force =     0.00201699    0.00115068    0.00000000
     atom    7 type  1   force =    -0.00155719   -0.00519038    0.00000000
     atom    8 type  1   force =     0.00185494   -0.00106457    0.00000000
     atom    9 type  1   force =    -0.00000875    0.00001894    0.00000000
     atom   10 type  1   force =     0.00255025    0.00222334    0.00000000
     atom   11 type  1   force =    -0.00370393    0.00392626    0.00000000
     atom   12 type  1   force =     0.00320488    0.00111522    0.00000000
     atom   13 type  1   force =    -0.00113708   -0.00065796    0.00000000
     atom   14 type  1   force =     0.00001497    0.00212278    0.00000000
     atom   15 type  1   force =     0.00153922   -0.00519296    0.00000000
     atom   16 type  1   force =    -0.00185426   -0.00107783    0.00000000
     atom   17 type  1   force =     0.00528481    0.00128960    0.00000000
     atom   18 type  1   force =    -0.00001043   -0.00230456    0.00000000
     atom   19 type  1   force =     0.00373671    0.00395714    0.00000000
     atom   20 type  1   force =     0.00112649    0.00067428    0.00000000
     atom   21 type  1   force =     0.00003113   -0.00051355    0.00000000
     atom   22 type  1   force =    -0.00198445    0.00111162    0.00000000
     atom   23 type  1   force =    -0.00043663    0.00026373    0.00000000
     atom   24 type  1   force =     0.00062199   -0.00331925    0.00000000
     atom   25 type  1   force =    -0.00001214    0.00134064    0.00000000
     atom   26 type  1   force =    -0.00254002    0.00218949    0.00000000
     atom   27 type  1   force =     0.01311206    0.00759760    0.00000000
     atom   28 type  1   force =    -0.00119169    0.00066682    0.00000000
     atom   29 type  1   force =     0.00114958   -0.00068381    0.00000000
     atom   30 type  1   force =    -0.00003193   -0.00136059    0.00000000
     atom   31 type  1   force =     0.00043758    0.00023500    0.00000000

     Total force =     0.031216     Total SCF correction =     0.000247

     Computing stress (Cartesian axis) and pressure

          total   stress  (Ry/bohr**3)                   (kbar)     P=   -0.57
  -0.00000579  -0.00000001   0.00000000         -0.85     -0.00      0.00
  -0.00000001  -0.00000578   0.00000000         -0.00     -0.85      0.00
   0.00000000   0.00000000   0.00000001          0.00      0.00      0.00

     BFGS Geometry Optimization

     number of scf cycles    =   1
     number of bfgs steps    =   0

     enthalpy new            =    -140.9361117069 Ry

     new trust radius        =       0.0151619852 bohr
     new conv_thr            =       0.0000010000 Ry

     new unit-cell volume =  37119.56484 a.u.^3 (  5500.55193 Ang^3 )
     density =      0.28059 g/cm^3

CELL_PARAMETERS (alat= 33.68096681)
   0.999855164  -0.000000362   0.000000000
  -0.499927896   0.865900339   0.000000000
   0.000000000   0.000000000   1.122132950

ATOMIC_POSITIONS (angstrom)
Al      -0.000338217   2.570477483   0.000000000
Al       2.224823837   1.286773323   0.000000000
Al      -0.006921448   5.148416198   0.000000000
Al      -4.456812025  10.289406824   0.000000000
Al      -2.227564178   8.994700064   0.000000000
Al      -6.681654410  14.147742153   0.000000000
Al      -4.455940396  12.858277870   0.000000000
Al       4.456155363   2.571669131   0.000000000
Al       6.682774391   1.286133197   0.000000000
Al       2.228949894   6.431714603   0.000000000
Al       4.453245912   5.146506397   0.000000000
Al       0.001722900  10.289434131   0.000000000
Al       2.227030672   9.002386718   0.000000000
Al      -2.227538245  14.148273071   0.000000000
Al       0.000873347  12.858293084   0.000000000
Al       8.909368258   2.571678699   0.000000000
Al      11.140750653   1.286822081   0.000000000
Al       6.682770470   6.429335467   0.000000000
[...]
     new trust radius        =       0.0227396922 bohr
     new conv_thr            =       0.0000010000 Ry

[...]

     iteration #  2     ecut=    80.00 Ry     beta= 0.40
     Davidson diagonalization with overlap
     c_bands:  1 eigenvalues not converged
     ethr =  1.58E-06,  avg # of iterations = 20.0

[...]

     Writing output data file 3al_planar_2x2_vcr.save/
     NEW-OLD atomic charge density approx. for the potential

[...]

     Writing output data file 3al_planar_2x2_vcr.save/
     NEW-OLD atomic charge density approx. for the potential
     Check: negative starting charge=   -0.000121

[...]

     Writing output data file 3al_planar_2x2_vcr.save/
     Check: negative starting charge=   -0.000121
     NEW-OLD atomic charge density approx. for the potential
     Check: negative starting charge=   -0.000133

[...]

     CASE: enthalpy_new > enthalpy_old

[...]

     WARNING: bfgs curvature condition failed, Theta= 0.008
     new trust radius        =       0.1607560848 bohr
     new conv_thr            =       0.0000004220 Ry

[...]

     Total force =     0.000679     Total SCF correction =     0.000024

[...]

     Total force =     0.000569     Total SCF correction =     0.000057
     SCF correction compared to forces is large: reduce conv_thr to get better values

[...]

     Writing output data file 3al_planar_2x2_vcr.save/
     Check: negative starting charge=   -0.000132
     NEW-OLD atomic charge density approx. for the potential
     Check: negative starting charge=   -0.000132
     extrapolated charge   92.99965, renormalised to   93.00000

[...]

     negative rho (up, down):  1.182E-08 0.000E+00
     extrapolated charge   93.00033, renormalised to   93.00000

[...]

     CASE: enthalpy_new < enthalpy_old

     small trust_radius: resetting bfgs history

     new trust radius        =       0.0000133410 bohr
     new conv_thr            =       0.0000000100 Ry

[...]

     Writing output data file 3al_planar_2x2_vcr.save/
     Check: negative starting charge=   -0.000132
     NEW-OLD atomic charge density approx. for the potential
     Check: negative starting charge=   -0.000132
     extrapolated charge   93.00001, renormalised to   93.00000

[...]

     number of scf cycles    = 264
     number of bfgs steps    = 261

     enthalpy old            =    -142.0762610913 Ry
     enthalpy new            =    -142.0762610855 Ry

     CASE: enthalpy_new > enthalpy_old

     new trust radius        =       0.0000013998 bohr

     trust_radius < trust_radius_min

     resetting bfgs history

     Message from routine bfgs:
     history already reset at previous step: stopping
     new conv_thr            =       0.0000000100 Ry

     new unit-cell volume =  26861.29869 a.u.^3 (  3980.43374 Ang^3 )
     density =      0.38774 g/cm^3

[...]

ATOMIC_POSITIONS (angstrom)
Al      -2.180200121   2.171471225   0.000000000
Al       0.402571218   1.398920169   0.000000000
Al       0.370475663   3.963063743   0.000000000
Al      -4.226557954   8.709537460   0.000000000
Al      -1.828134549   7.713195986   0.000000000
Al      -4.708988160  13.772323908   0.000000000
Al      -4.258696815  11.273668616   0.000000000
Al       2.750475866   2.736611825   0.000000000
Al       5.093359965   1.262321111   0.000000000
Al       0.509394165   6.544222168   0.000000000
Al       2.847055180   5.233692749   0.000000000
Al       0.698773012   9.172867710   0.000000000
Al       3.010341507   7.736599905   0.000000000
Al      -1.675988667  10.500929515   0.000000000
Al       1.488916295  11.713213106   0.000000000
Al       7.471668740   2.260975846   0.000000000
Al       9.485650910   0.781462685   0.000000000
Al       5.253046678   3.765924602   0.000000000
Al       7.964086882   4.757839311   0.000000000
Al       5.721371530   8.728612696   0.000000000
Al       5.487219438   6.247266061   0.000000000
Al      -0.621563765  13.082394817   0.000000000
Al       3.502689222  10.233427795   0.000000000
Al      10.275695902   3.321729900   0.000000000
Al      11.595910157  -0.588021958   0.000000000
Al      10.465030995   5.950327791   0.000000000
Al      12.802450808   4.781096232   0.000000000
Al       8.223972127   9.757896005   0.000000000
Al       8.127355312   7.260800101   0.000000000
Al       5.881054740  11.232194825   0.000000000
Al       8.110248093  12.232871378   0.000000000

     Writing output data file 3al_planar_2x2_vcr.save/
     Check: negative starting charge=   -0.000132
     NEW-OLD atomic charge density approx. for the potential
     Check: negative starting charge=   -0.000132

[...]

     Threshold (ethr) on eigenvalues was too large:
     Diagonalizing with lowered threshold

     Davidson diagonalization with overlap
     ethr =  5.42E-10,  avg # of iterations =  2.0

[...]

     bfgs converged in 265 scf cycles and 261 bfgs steps
     (criteria: energy <  1.0E-05 Ry, force <  1.0E-04Ry/Bohr, cell <  5.0E-05kbar)

     End of BFGS Geometry Optimization

     Final enthalpy =    -142.0762610913 Ry
Begin final coordinates
     new unit-cell volume =  26861.29869 a.u.^3 (  3980.43374 Ang^3 )
     density =      0.38774 g/cm^3

CELL_PARAMETERS (alat= 33.68096681)
   0.832090284  -0.009991661   0.000000000
  -0.424904286   0.758039128   0.000000000
   0.000000000   0.000000000   1.122132950

ATOMIC_POSITIONS (angstrom)
Al      -2.180200121   2.171471225   0.000000000
Al       0.402571218   1.398920169   0.000000000
Al       0.370475663   3.963063743   0.000000000
Al      -4.226557954   8.709537460   0.000000000
Al      -1.828134549   7.713195986   0.000000000
Al      -4.708988160  13.772323908   0.000000000
Al      -4.258696815  11.273668616   0.000000000
Al       2.750475866   2.736611825   0.000000000
Al       5.093359965   1.262321111   0.000000000
Al       0.509394165   6.544222168   0.000000000
Al       2.847055180   5.233692749   0.000000000
Al       0.698773012   9.172867710   0.000000000
Al       3.010341507   7.736599905   0.000000000
Al      -1.675988667  10.500929515   0.000000000
Al       1.488916295  11.713213106   0.000000000
Al       7.471668740   2.260975846   0.000000000
Al       9.485650910   0.781462685   0.000000000
Al       5.253046678   3.765924602   0.000000000
Al       7.964086882   4.757839311   0.000000000
Al       5.721371530   8.728612696   0.000000000
Al       5.487219438   6.247266061   0.000000000
Al      -0.621563765  13.082394817   0.000000000
Al       3.502689222  10.233427795   0.000000000
Al      10.275695902   3.321729900   0.000000000
Al      11.595910157  -0.588021958   0.000000000
Al      10.465030995   5.950327791   0.000000000
Al      12.802450808   4.781096232   0.000000000
Al       8.223972127   9.757896005   0.000000000
Al       8.127355312   7.260800101   0.000000000
Al       5.881054740  11.232194825   0.000000000
Al       8.110248093  12.232871378   0.000000000
End final coordinates

     Writing output data file 3al_planar_2x2_vcr.save/

     A final scf calculation at the relaxed structure.
     The G-vectors are recalculated for the final unit cell
     Results may differ from those at the preceding step.

     bravais-lattice index     =            4
     lattice parameter (alat)  =      33.6810  a.u.
     unit-cell volume          =   26861.2987 (a.u.)^3
     number of atoms/cell      =           31
     number of atomic types    =            1
     number of electrons       =        93.00
     number of Kohn-Sham states=           56
     kinetic-energy cutoff     =      80.0000  Ry
     charge density cutoff     =     320.0000  Ry
     convergence threshold     =      1.0E-08
     mixing beta               =       0.4000
     number of iterations used =            8  plain     mixing
     Exchange-correlation      = PBE ( 1  4  3  4 0 0)

     celldm(1)=  33.680967  celldm(2)=   0.000000  celldm(3)=   1.122133
     celldm(4)=   0.000000  celldm(5)=   0.000000  celldm(6)=   0.000000

     crystal axes: (cart. coord. in units of alat)
               a(1) = (   0.832090  -0.009992   0.000000 )
               a(2) = (  -0.424904   0.758039   0.000000 )
               a(3) = (   0.000000   0.000000   1.122133 )

     reciprocal axes: (cart. coord. in units 2 pi/alat)
               b(1) = (  1.209937  0.678207  0.000000 )
               b(2) = (  0.015948  1.328133  0.000000 )
               b(3) = (  0.000000  0.000000  0.891160 )

     PseudoPot. # 1 for Al read from file:
     ./Al.upf
     MD5 check sum: 4974d48a734c9d7d1eb6780a1419d19d
     Pseudo is Norm-conserving + core correction, Zval =  3.0
     Generated using ONCVPSP code by D. R. Hamann
     Using radial grid of 1876 points,  6 beta functions with:
                l(1) =   0
                l(2) =   0
                l(3) =   1
                l(4) =   1
                l(5) =   2
                l(6) =   2

     atomic species   valence    mass     pseudopotential
        Al             3.00    29.98200     Al( 1.00)

      2 Sym. Ops. (no inversion) found

   Cartesian axes

     site n.     atom                  positions (alat units)
         1           Al  tau(   1) = (  -0.1223237   0.1218340   0.0000000  )
         2           Al  tau(   2) = (   0.0225869   0.0784887   0.0000000  )
         3           Al  tau(   3) = (   0.0207861   0.2223542   0.0000000  )
         4           Al  tau(   4) = (  -0.2371380   0.4886629   0.0000000  )
         5           Al  tau(   5) = (  -0.1025705   0.4327616   0.0000000  )
         6           Al  tau(   6) = (  -0.2642055   0.7727189   0.0000000  )
         7           Al  tau(   7) = (  -0.2389412   0.6325278   0.0000000  )
         8           Al  tau(   8) = (   0.1543200   0.1535421   0.0000000  )
         9           Al  tau(   9) = (   0.2857714   0.0708246   0.0000000  )
        10           Al  tau(  10) = (   0.0285804   0.3671744   0.0000000  )
        11           Al  tau(  11) = (   0.1597387   0.2936450   0.0000000  )
        12           Al  tau(  12) = (   0.0392058   0.5146589   0.0000000  )
        13           Al  tau(  13) = (   0.1689002   0.4340747   0.0000000  )
        14           Al  tau(  14) = (  -0.0940341   0.5891720   0.0000000  )
        15           Al  tau(  15) = (   0.0835381   0.6571891   0.0000000  )
        16           Al  tau(  16) = (   0.4192103   0.1268558   0.0000000  )
        17           Al  tau(  17) = (   0.5322081   0.0438453   0.0000000  )
        18           Al  tau(  18) = (   0.2947308   0.2112934   0.0000000  )
        19           Al  tau(  19) = (   0.4468382   0.2669464   0.0000000  )
        20           Al  tau(  20) = (   0.3210070   0.4897332   0.0000000  )
        21           Al  tau(  21) = (   0.3078695   0.3505132   0.0000000  )
        22           Al  tau(  22) = (  -0.0348739   0.7340093   0.0000000  )
        23           Al  tau(  23) = (   0.1965241   0.5741633   0.0000000  )
        24           Al  tau(  24) = (   0.5765348   0.1863711   0.0000000  )
        25           Al  tau(  25) = (   0.6506076  -0.0329919   0.0000000  )
        26           Al  tau(  26) = (   0.5871578   0.3338529   0.0000000  )
        27           Al  tau(  27) = (   0.7183026   0.2682513   0.0000000  )
        28           Al  tau(  28) = (   0.4614195   0.5474828   0.0000000  )
        29           Al  tau(  29) = (   0.4559987   0.4073792   0.0000000  )
        30           Al  tau(  30) = (   0.3299663   0.6302008   0.0000000  )
        31           Al  tau(  31) = (   0.4550388   0.6863454   0.0000000  )

     number of k points=     1  Methfessel-Paxton smearing, width (Ry)=  0.0500
                       cart. coord. in units 2pi/alat
        k(    1) = (   0.0000000   0.0000000   0.0000000), wk =   2.0000000

     Initial potential from superposition of free atoms

     starting charge   92.92414, renormalised to   93.00000

     negative rho (up, down):  7.285E-05 0.000E+00
     Starting wfcs are  124 randomized atomic wfcs

     Self-consistent Calculation

     iteration #  1     ecut=    80.00 Ry     beta= 0.40
     Davidson diagonalization with overlap
     c_bands:  3 eigenvalues not converged
     ethr =  1.00E-06,  avg # of iterations = 20.0

[...]

     negative rho (up, down):  2.001E-08 0.000E+00

[...]

     total energy              =    -142.07600329 Ry
     Harris-Foulkes estimate   =    -142.07600332 Ry
     estimated scf accuracy    <       0.00000005 Ry

     iteration # 17     ecut=    80.00 Ry     beta= 0.40
     Davidson diagonalization with overlap
     ethr =  5.21E-11,  avg # of iterations =  3.0

     End of self-consistent calculation

          k = 0.0000 0.0000 0.0000 (324517 PWs)   bands (ev):

   -11.5960 -10.9755 -10.8661 -10.7532 -10.6935 -10.5870 -10.1831  -9.2670
    -9.2359  -9.1645  -8.9080  -8.7142  -8.7054  -8.3332  -8.1919  -8.1544
    -8.0865  -7.9059  -7.7283  -6.2427  -6.2045  -6.1201  -6.0617  -5.8997
    -5.7352  -5.6666  -5.4649  -5.3223  -5.3008  -5.1907  -5.1586  -4.8529
    -4.4746  -4.4746  -4.1972  -4.1911  -4.1173  -4.0527  -4.0162  -3.9622
    -3.9537  -3.7344  -3.6935  -3.6682  -2.5566  -2.5447  -2.4642  -2.2953
    -2.1825  -2.1528  -1.9203  -1.8509  -1.7320  -1.7224  -1.6609  -1.5610

     the Fermi energy is    -2.4325 ev

!    total energy              =    -142.07600317 Ry
     Harris-Foulkes estimate   =    -142.07600318 Ry
     estimated scf accuracy    <          4.5E-09 Ry

     The total energy is the sum of the following terms:

     one-electron contribution =    -684.10121811 Ry
     hartree contribution      =     350.79552052 Ry
     xc contribution           =     -63.66150651 Ry
     ewald contribution        =     254.92110854 Ry
     smearing contrib. (-TS)   =      -0.02990761 Ry

     convergence has been achieved in  17 iterations

     Forces acting on atoms (cartesian axes, Ry/au):

     atom    1 type  1   force =    -0.00000689   -0.00000002    0.00000000
     atom    2 type  1   force =     0.00000151   -0.00000061    0.00000000
     atom    3 type  1   force =     0.00001079   -0.00000555    0.00000000
     atom    4 type  1   force =     0.00000122    0.00000192    0.00000000
     atom    5 type  1   force =    -0.00000826    0.00000060    0.00000000
     atom    6 type  1   force =    -0.00000096   -0.00000199    0.00000000
     atom    7 type  1   force =     0.00001206   -0.00000164    0.00000000
     atom    8 type  1   force =    -0.00001293   -0.00001254    0.00000000
     atom    9 type  1   force =    -0.00001866   -0.00000393    0.00000000
     atom   10 type  1   force =     0.00000168    0.00000210    0.00000000
     atom   11 type  1   force =    -0.00000977   -0.00000309    0.00000000
     atom   12 type  1   force =     0.00000931   -0.00000180    0.00000000
     atom   13 type  1   force =    -0.00001105    0.00001265    0.00000000
     atom   14 type  1   force =    -0.00001745    0.00000513    0.00000000
     atom   15 type  1   force =    -0.00000470   -0.00000830    0.00000000
     atom   16 type  1   force =     0.00001761   -0.00000481    0.00000000
     atom   17 type  1   force =    -0.00001069   -0.00000102    0.00000000
     atom   18 type  1   force =    -0.00000780   -0.00000935    0.00000000
     atom   19 type  1   force =     0.00001716   -0.00000268    0.00000000
     atom   20 type  1   force =     0.00000178   -0.00000549    0.00000000
     atom   21 type  1   force =    -0.00000204    0.00000058    0.00000000
     atom   22 type  1   force =     0.00000271    0.00001040    0.00000000
     atom   23 type  1   force =     0.00000544    0.00001170    0.00000000
     atom   24 type  1   force =    -0.00000111   -0.00000329    0.00000000
     atom   25 type  1   force =     0.00000398   -0.00000218    0.00000000
     atom   26 type  1   force =    -0.00000008    0.00000666    0.00000000
     atom   27 type  1   force =     0.00000015    0.00000473    0.00000000
     atom   28 type  1   force =     0.00001177   -0.00000361    0.00000000
     atom   29 type  1   force =     0.00000913    0.00001102    0.00000000
     atom   30 type  1   force =     0.00000161   -0.00000011    0.00000000
     atom   31 type  1   force =     0.00000450    0.00000452    0.00000000

     Total force =     0.000061     Total SCF correction =     0.000061
     SCF correction compared to forces is large: reduce conv_thr to get better values

     Computing stress (Cartesian axis) and pressure

          total   stress  (Ry/bohr**3)                   (kbar)     P=    0.00
   0.00000004  -0.00000002   0.00000000          0.01     -0.00      0.00
  -0.00000002   0.00000001   0.00000000         -0.00      0.00      0.00
   0.00000000   0.00000000  -0.00000001          0.00      0.00     -0.00

     Writing output data file 3al_planar_2x2_vcr.save/

     General routines

     Parallel routines

   This run was terminated on:  22:29:28  26Nov2020

   JOB DONE.