     Program PWSCF v.6.3MaX starts on 25Nov2020 at 20:16: 3

     R & G space division:  proc/nbgrp/npool/nimage =       8
     Waiting for input...
     Reading input from standard input

     Current dimensions of program PWSCF are:
     Max number of different atomic species (ntypx) = 10
     Max number of k-points (npk) =  40000
     Max angular momentum in pseudopotentials (lmaxx) =  3

     Subspace diagonalization in iterative solution of the eigenvalue problem:
     a serial algorithm will be used

     bravais-lattice index     =            4
     lattice parameter (alat)  =      33.6810  a.u.
     unit-cell volume          =   37130.3117 (a.u.)^3
     number of atoms/cell      =           31
     number of atomic types    =            1
     number of electrons       =        93.00
     number of Kohn-Sham states=           56
     kinetic-energy cutoff     =      80.0000  Ry
     charge density cutoff     =     320.0000  Ry
     convergence threshold     =      1.0E-06
     mixing beta               =       0.4000
     number of iterations used =            8  plain     mixing
     Exchange-correlation      = PBE ( 1  4  3  4 0 0)
     nstep                     =          300

     celldm(1)=  33.680967  celldm(2)=   0.000000  celldm(3)=   1.122133
     celldm(4)=   0.000000  celldm(5)=   0.000000  celldm(6)=   0.000000

     crystal axes: (cart. coord. in units of alat)
               a(1) = (   1.000000   0.000000   0.000000 )
               a(2) = (  -0.500000   0.866025   0.000000 )
               a(3) = (   0.000000   0.000000   1.122133 )

     reciprocal axes: (cart. coord. in units 2 pi/alat)
               b(1) = (  1.000000  0.577350  0.000000 )
               b(2) = (  0.000000  1.154701  0.000000 )
               b(3) = (  0.000000  0.000000  0.891160 )

     PseudoPot. # 1 for Al read from file:
     ./Al.upf
     MD5 check sum: 4974d48a734c9d7d1eb6780a1419d19d
     Pseudo is Norm-conserving + core correction, Zval =  3.0
     Generated using ONCVPSP code by D. R. Hamann
     Using radial grid of 1876 points,  6 beta functions with:
                l(1) =   0
                l(2) =   0
                l(3) =   1
                l(4) =   1
                l(5) =   2
                l(6) =   2

     atomic species   valence    mass     pseudopotential
        Al             3.00    29.98200     Al( 1.00)

      4 Sym. Ops. (no inversion) found ( 2 have fractional translation)

   Cartesian axes

     site n.     atom                  positions (alat units)
         1           Al  tau(   1) = (  -0.0000000   0.1443393   0.0000000  )
         2           Al  tau(   2) = (   0.1250015   0.0721696   0.0000000  )
         3           Al  tau(   3) = (  -0.1249997   0.3608472   0.0000000  )
         4           Al  tau(   4) = (   0.0000018   0.2886775   0.0000000  )
         5           Al  tau(   5) = (  -0.2499994   0.5773550   0.0000000  )
         6           Al  tau(   6) = (  -0.3749991   0.7938629   0.0000000  )
         7           Al  tau(   7) = (  -0.2499976   0.7216932   0.0000000  )
         8           Al  tau(   8) = (   0.2500011   0.1443403   0.0000000  )
         9           Al  tau(   9) = (   0.3750027   0.0721706   0.0000000  )
        10           Al  tau(  10) = (   0.1250014   0.3608482   0.0000000  )
        11           Al  tau(  11) = (   0.2500030   0.2886785   0.0000000  )
        12           Al  tau(  12) = (   0.0000017   0.5773560   0.0000000  )
        13           Al  tau(  13) = (   0.1250033   0.5051864   0.0000000  )
        14           Al  tau(  14) = (  -0.1249980   0.7938639   0.0000000  )
        15           Al  tau(  15) = (   0.0000036   0.7216942   0.0000000  )
        16           Al  tau(  16) = (   0.5000023   0.1443413   0.0000000  )
        17           Al  tau(  17) = (   0.6250038   0.0721717   0.0000000  )
        18           Al  tau(  18) = (   0.3750026   0.3608492   0.0000000  )
        19           Al  tau(  19) = (   0.5000041   0.2886795   0.0000000  )
        20           Al  tau(  20) = (   0.2500029   0.5773571   0.0000000  )
        21           Al  tau(  21) = (   0.3750044   0.5051874   0.0000000  )
        22           Al  tau(  22) = (   0.1250032   0.7938649   0.0000000  )
        23           Al  tau(  23) = (   0.2500047   0.7216953   0.0000000  )
        24           Al  tau(  24) = (   0.7500035   0.1443423   0.0000000  )
        25           Al  tau(  25) = (   0.8750050   0.0721727   0.0000000  )
        26           Al  tau(  26) = (   0.6250038   0.3608502   0.0000000  )
        27           Al  tau(  27) = (   0.7500053   0.2886805   0.0000000  )
        28           Al  tau(  28) = (   0.5000041   0.5773581   0.0000000  )
        29           Al  tau(  29) = (   0.6250056   0.5051884   0.0000000  )
        30           Al  tau(  30) = (   0.3750044   0.7938660   0.0000000  )
        31           Al  tau(  31) = (   0.5000059   0.7216963   0.0000000  )

     number of k points=     1  Methfessel-Paxton smearing, width (Ry)=  0.0500
                       cart. coord. in units 2pi/alat
        k(    1) = (   0.0000000   0.0000000   0.0000000), wk =   2.0000000

     Initial potential from superposition of free atoms

     starting charge   92.92414, renormalised to   93.00000

     negative rho (up, down):  9.278E-05 0.000E+00
     Starting wfcs are  124 randomized atomic wfcs

     Self-consistent Calculation

     iteration #  1     ecut=    80.00 Ry     beta= 0.40
     Davidson diagonalization with overlap
     ethr =  1.00E-02,  avg # of iterations =  2.0

     negative rho (up, down):  1.149E-06 0.000E+00

     total energy              =    -140.64166023 Ry
     Harris-Foulkes estimate   =    -141.23594887 Ry
     estimated scf accuracy    <       1.54924081 Ry

[...]

     End of self-consistent calculation

          k = 0.0000 0.0000 0.0000 (448403 PWs)   bands (ev):

    -9.9530  -9.4484  -9.4332  -9.4327  -9.4262  -9.4257  -9.1459  -8.4049
    -8.4048  -8.3882  -8.3881  -8.3798  -8.3035  -8.2571  -8.2569  -7.5865
    -6.9325  -6.9324  -6.8234  -6.4867  -6.4773  -6.4773  -6.3701  -6.3700
    -5.4641  -4.8435  -4.8434  -4.8370  -4.7357  -4.7356  -4.4780  -4.4680
    -4.4430  -4.4430  -4.1227  -4.1223  -3.9779  -3.4712  -3.4689  -3.4687
    -3.4578  -3.4575  -3.4017  -3.2745  -3.2744  -3.2224  -3.2075  -2.9744
    -2.9654  -2.9652  -2.9389  -2.5198  -2.5197  -2.4494  -2.4493  -2.4315

     the Fermi energy is    -3.0911 ev

!    total energy              =    -140.93610801 Ry
     Harris-Foulkes estimate   =    -140.93610862 Ry
     estimated scf accuracy    <       0.00000068 Ry

     The total energy is the sum of the following terms:

     one-electron contribution =    -502.03612811 Ry
     hartree contribution      =     259.76319556 Ry
     xc contribution           =     -61.33575818 Ry
     ewald contribution        =     162.75359565 Ry
     smearing contrib. (-TS)   =      -0.08101294 Ry

     convergence has been achieved in  16 iterations

[...]

     Forces acting on atoms (cartesian axes, Ry/au):

     atom    1 type  1   force =     0.00158274    0.00520884    0.00000000
     atom    2 type  1   force =    -0.00199809   -0.00115360    0.00000000
     atom    3 type  1   force =     0.00001434    0.01517015    0.00000000
     atom    4 type  1   force =     0.00320703   -0.00110552    0.00000000
     atom    5 type  1   force =     0.01314490   -0.00757265    0.00000000
     atom    6 type  1   force =     0.00530236   -0.00123372    0.00000000
     atom    7 type  1   force =     0.00064610    0.00333013    0.00000000
     atom    8 type  1   force =    -0.00046142   -0.00026640    0.00000000
     atom    9 type  1   force =     0.00000568    0.00132355    0.00000000
     atom   10 type  1   force =    -0.00117230    0.00063998    0.00000000
     atom   11 type  1   force =     0.00114907   -0.00065686    0.00000000
     atom   12 type  1   force =    -0.01312209   -0.00757604    0.00000000
     atom   13 type  1   force =     0.00253929   -0.00218558    0.00000000
     atom   14 type  1   force =    -0.00003191   -0.00133524    0.00000000
     atom   15 type  1   force =    -0.00062313    0.00329188    0.00000000
     atom   16 type  1   force =     0.00045414   -0.00027785    0.00000000
     atom   17 type  1   force =     0.00199332   -0.00117138    0.00000000
     atom   18 type  1   force =    -0.00001355    0.00053223    0.00000000
     atom   19 type  1   force =    -0.00114086   -0.00065867    0.00000000
     atom   20 type  1   force =    -0.00370236   -0.00394939    0.00000000
     atom   21 type  1   force =    -0.00001779    0.00231196    0.00000000
     atom   22 type  1   force =    -0.00527145   -0.00123165    0.00000000
     atom   23 type  1   force =     0.00185305    0.00106986    0.00000000
     atom   24 type  1   force =    -0.00153786    0.00520346    0.00000000
     atom   25 type  1   force =    -0.00002968   -0.00214151    0.00000000
     atom   26 type  1   force =     0.00114221    0.00065945    0.00000000
     atom   27 type  1   force =    -0.00318894   -0.00114279    0.00000000
     atom   28 type  1   force =     0.00373740   -0.00393355    0.00000000
     atom   29 type  1   force =    -0.00258415   -0.00219031    0.00000000
     atom   30 type  1   force =    -0.00000662   -0.00000382    0.00000000
     atom   31 type  1   force =    -0.00186944    0.00104505    0.00000000

     Total force =     0.031244     Total SCF correction =     0.000670

     Computing stress (Cartesian axis) and pressure

     negative rho (up, down):  1.382E-04 0.000E+00
          total   stress  (Ry/bohr**3)                   (kbar)     P=   -0.57
  -0.00000577   0.00000001   0.00000000         -0.85      0.00      0.00
   0.00000001  -0.00000579   0.00000000          0.00     -0.85      0.00
   0.00000000   0.00000000   0.00000001          0.00      0.00      0.00

     BFGS Geometry Optimization

     number of scf cycles    =   1
     number of bfgs steps    =   0

     enthalpy new            =    -140.9361080075 Ry

     new trust radius        =       0.0151701548 bohr
     new conv_thr            =       0.0000010000 Ry

     new unit-cell volume =  37119.58248 a.u.^3 (  5500.55455 Ang^3 )
     density =      0.28059 g/cm^3

CELL_PARAMETERS (alat= 33.68096681)
   0.999855671   0.000000282   0.000000000
  -0.499927592   0.865899989   0.000000000
   0.000000000   0.000000000   1.122132950

ATOMIC_POSITIONS (angstrom)
Al       0.000837571   2.574971738   0.000000000
Al       2.226548357   1.285497618   0.000000000
Al      -2.227564277   6.438546547   0.000000000
Al       0.001730385   5.143827332   0.000000000
Al      -4.448188896  10.284817594   0.000000000
Al      -6.679910397  14.146475802   0.000000000
Al      -4.454768615  12.862782792   0.000000000
Al       4.454933697   2.572094231   0.000000000
Al       6.682786251   1.286827729   0.000000000
Al       2.226985560   6.430878075   0.000000000
Al       4.455819212   5.144084170   0.000000000
Al      -0.006909091  10.284835245   0.000000000
Al       2.228982773   9.001579596   0.000000000
Al      -2.227555070  14.146441539   0.000000000
Al      -0.000262471  12.862782004   0.000000000
[...]

     Writing output data file 6al_planar_2x2_vcr.save/
     NEW-OLD atomic charge density approx. for the potential

     negative rho (up, down):  1.382E-04 0.000E+00
     extrapolated charge   92.97314, renormalised to   93.00000

[...]

     enthalpy old            =    -140.9361080075 Ry
     enthalpy new            =    -140.9371127570 Ry

     CASE: enthalpy_new < enthalpy_old

     WARNING: bfgs curvature condition failed, Theta= 0.855
     new trust radius        =       0.0227519406 bohr
     new conv_thr            =       0.0000010000 Ry

[...]

     Writing output data file 6al_planar_2x2_vcr.save/
     NEW-OLD atomic charge density approx. for the potential

[...]

     Writing output data file 6al_planar_2x2_vcr.save/
     NEW-OLD atomic charge density approx. for the potential
     Check: negative starting charge=   -0.000121

[...]

     Writing output data file 6al_planar_2x2_vcr.save/
     Check: negative starting charge=   -0.000121
     NEW-OLD atomic charge density approx. for the potential
     Check: negative starting charge=   -0.000133

[...]

     iteration #  1     ecut=    80.00 Ry     beta= 0.40
     Davidson diagonalization with overlap
     c_bands:  1 eigenvalues not converged
     ethr =  1.00E-06,  avg # of iterations = 20.0

[...]

     WARNING: bfgs curvature condition failed, Theta= 0.069
     new trust radius        =       0.8000000000 bohr
     new conv_thr            =       0.0000010000 Ry

[...]

     CASE: enthalpy_new > enthalpy_old

[...]

     Threshold (ethr) on eigenvalues was too large:
     Diagonalizing with lowered threshold

     Davidson diagonalization with overlap
     ethr =  6.58E-08,  avg # of iterations =  6.0

[...]

     Total force =     0.000366     Total SCF correction =     0.000053
     SCF correction compared to forces is large: reduce conv_thr to get better values

[...]

     Total force =     0.000191     Total SCF correction =     0.000013

[...]

     negative rho (up, down):  3.087E-05 0.000E+00
     extrapolated charge   93.00004, renormalised to   93.00000

[...]

     small trust_radius: resetting bfgs history

[...]

     number of scf cycles    = 158
     number of bfgs steps    = 156

     enthalpy old            =    -141.9736192278 Ry
     enthalpy new            =    -141.9736192298 Ry

     CASE: enthalpy_new < enthalpy_old

     Message from routine bfgs:
     history already reset at previous step: stopping
     small trust_radius: resetting bfgs history

     new trust radius        =       0.0000154035 bohr
     new conv_thr            =       0.0000000100 Ry

     new unit-cell volume =  27360.02312 a.u.^3 (  4054.33708 Ang^3 )
     density =      0.38067 g/cm^3

[...]

ATOMIC_POSITIONS (angstrom)
Al       0.732263690   2.065512587   0.000000000
Al      -0.311630587  -0.179920579   0.000000000
Al      -1.004826750   6.778742466   0.000000000
Al      -0.784676617   4.196938772   0.000000000
Al      -2.229838573   8.900556634   0.000000000
Al      -5.443042926  12.761551748   0.000000000
Al      -4.355643042  10.382096953   0.000000000
Al       3.418009794   1.973420478   0.000000000
Al       6.089995392   1.951589557   0.000000000
Al       2.103500356   4.194873989   0.000000000
Al       4.735124511   4.298326210   0.000000000
Al       0.745461858   9.203825116   0.000000000
Al       1.479796921   6.601008213   0.000000000
Al      -2.913370579  12.884412243   0.000000000
Al      -1.141448119  11.141169252   0.000000000
Al       8.674689923   1.752803689   0.000000000
Al      10.964864695   0.389586220   0.000000000
Al       5.855290297   6.636178538   0.000000000
Al       7.347306024   4.241999563   0.000000000
Al       3.556335255   7.999192021   0.000000000
Al       5.819824775   9.301119668   0.000000000
Al       1.107655876  12.240460566   0.000000000
Al       3.119423665  10.574431453   0.000000000
Al      10.897732078   3.128802952   0.000000000
Al      13.281002762   1.856341197   0.000000000
Al       9.544892930   5.510809135   0.000000000
Al      12.124605167   5.446486582   0.000000000
Al       8.158461875   7.873421020   0.000000000
Al      10.779072135   7.777049607   0.000000000
Al       5.339943466  11.856481338   0.000000000
Al       8.248141062  10.573607718   0.000000000

     Writing output data file 6al_planar_2x2_vcr.save/
     Check: negative starting charge=   -0.000133
     NEW-OLD atomic charge density approx. for the potential
     Check: negative starting charge=   -0.000133

[...]

     Threshold (ethr) on eigenvalues was too large:
     Diagonalizing with lowered threshold

     Davidson diagonalization with overlap
     ethr =  4.31E-11,  avg # of iterations =  5.0

[...]

     bfgs converged in 159 scf cycles and 157 bfgs steps
     (criteria: energy <  1.0E-05 Ry, force <  1.0E-04Ry/Bohr, cell <  5.0E-05kbar)

     End of BFGS Geometry Optimization

     Final enthalpy =    -141.9736192250 Ry
Begin final coordinates
     new unit-cell volume =  27360.02312 a.u.^3 (  4054.33708 Ang^3 )
     density =      0.38067 g/cm^3

CELL_PARAMETERS (alat= 33.68096681)
   0.861346640   0.005054900   0.000000000
  -0.426295648   0.738365722   0.000000000
   0.000000000   0.000000000   1.122132950

ATOMIC_POSITIONS (angstrom)
Al       0.732263690   2.065512587   0.000000000
Al      -0.311630587  -0.179920579   0.000000000
Al      -1.004826750   6.778742466   0.000000000
Al      -0.784676617   4.196938772   0.000000000
Al      -2.229838573   8.900556634   0.000000000
Al      -5.443042926  12.761551748   0.000000000
Al      -4.355643042  10.382096953   0.000000000
Al       3.418009794   1.973420478   0.000000000
Al       6.089995392   1.951589557   0.000000000
Al       2.103500356   4.194873989   0.000000000
Al       4.735124511   4.298326210   0.000000000
Al       0.745461858   9.203825116   0.000000000
Al       1.479796921   6.601008213   0.000000000
Al      -2.913370579  12.884412243   0.000000000
Al      -1.141448119  11.141169252   0.000000000
Al       8.674689923   1.752803689   0.000000000
Al      10.964864695   0.389586220   0.000000000
Al       5.855290297   6.636178538   0.000000000
Al       7.347306024   4.241999563   0.000000000
Al       3.556335255   7.999192021   0.000000000
Al       5.819824775   9.301119668   0.000000000
Al       1.107655876  12.240460566   0.000000000
Al       3.119423665  10.574431453   0.000000000
Al      10.897732078   3.128802952   0.000000000
Al      13.281002762   1.856341197   0.000000000
Al       9.544892930   5.510809135   0.000000000
Al      12.124605167   5.446486582   0.000000000
Al       8.158461875   7.873421020   0.000000000
Al      10.779072135   7.777049607   0.000000000
Al       5.339943466  11.856481338   0.000000000
Al       8.248141062  10.573607718   0.000000000
End final coordinates

     Writing output data file 6al_planar_2x2_vcr.save/

     A final scf calculation at the relaxed structure.
     The G-vectors are recalculated for the final unit cell
     Results may differ from those at the preceding step.

     bravais-lattice index     =            4
     lattice parameter (alat)  =      33.6810  a.u.
     unit-cell volume          =   27360.0231 (a.u.)^3
     number of atoms/cell      =           31
     number of atomic types    =            1
     number of electrons       =        93.00
     number of Kohn-Sham states=           56
     kinetic-energy cutoff     =      80.0000  Ry
     charge density cutoff     =     320.0000  Ry
     convergence threshold     =      1.0E-08
     mixing beta               =       0.4000
     number of iterations used =            8  plain     mixing
     Exchange-correlation      = PBE ( 1  4  3  4 0 0)

     celldm(1)=  33.680967  celldm(2)=   0.000000  celldm(3)=   1.122133
     celldm(4)=   0.000000  celldm(5)=   0.000000  celldm(6)=   0.000000

     crystal axes: (cart. coord. in units of alat)
               a(1) = (   0.861347   0.005055   0.000000 )
               a(2) = (  -0.426296   0.738366   0.000000 )
               a(3) = (   0.000000   0.000000   1.122133 )

     reciprocal axes: (cart. coord. in units 2 pi/alat)
               b(1) = (  1.157052  0.668025  0.000000 )
               b(2) = ( -0.007921  1.349769  0.000000 )
               b(3) = (  0.000000  0.000000  0.891160 )

     PseudoPot. # 1 for Al read from file:
     ./Al.upf
     MD5 check sum: 4974d48a734c9d7d1eb6780a1419d19d
     Pseudo is Norm-conserving + core correction, Zval =  3.0
     Generated using ONCVPSP code by D. R. Hamann
     Using radial grid of 1876 points,  6 beta functions with:
                l(1) =   0
                l(2) =   0
                l(3) =   1
                l(4) =   1
                l(5) =   2
                l(6) =   2

     atomic species   valence    mass     pseudopotential
        Al             3.00    29.98200     Al( 1.00)

      4 Sym. Ops. (no inversion) found ( 2 have fractional translation)

   Cartesian axes

     site n.     atom                  positions (alat units)
         1           Al  tau(   1) = (   0.0410849   0.1158890   0.0000000  )
         2           Al  tau(   2) = (  -0.0174845  -0.0100947   0.0000000  )
         3           Al  tau(   3) = (  -0.0563775   0.3803325   0.0000000  )
         4           Al  tau(   4) = (  -0.0440256   0.2354762   0.0000000  )
         5           Al  tau(   5) = (  -0.1251088   0.4993804   0.0000000  )
         6           Al  tau(   6) = (  -0.3053909   0.7160079   0.0000000  )
         7           Al  tau(   7) = (  -0.2443805   0.5825047   0.0000000  )
         8           Al  tau(   8) = (   0.1917731   0.1107220   0.0000000  )
         9           Al  tau(   9) = (   0.3416892   0.1094971   0.0000000  )
        10           Al  tau(  10) = (   0.1180204   0.2353603   0.0000000  )
        11           Al  tau(  11) = (   0.2656720   0.2411647   0.0000000  )
        12           Al  tau(  12) = (   0.0418254   0.5163958   0.0000000  )
        13           Al  tau(  13) = (   0.0830264   0.3703604   0.0000000  )
        14           Al  tau(  14) = (  -0.1634595   0.7229012   0.0000000  )
        15           Al  tau(  15) = (  -0.0640428   0.6250937   0.0000000  )
        16           Al  tau(  16) = (   0.4867078   0.0983439   0.0000000  )
        17           Al  tau(  17) = (   0.6152018   0.0218584   0.0000000  )
        18           Al  tau(  18) = (   0.3285207   0.3723337   0.0000000  )
        19           Al  tau(  19) = (   0.4122327   0.2380044   0.0000000  )
        20           Al  tau(  20) = (   0.1995340   0.4488078   0.0000000  )
        21           Al  tau(  21) = (   0.3265309   0.5218546   0.0000000  )
        22           Al  tau(  22) = (   0.0621469   0.6867712   0.0000000  )
        23           Al  tau(  23) = (   0.1750204   0.5932959   0.0000000  )
        24           Al  tau(  24) = (   0.6114352   0.1755466   0.0000000  )
        25           Al  tau(  25) = (   0.7451525   0.1041531   0.0000000  )
        26           Al  tau(  26) = (   0.5355319   0.3091930   0.0000000  )
        27           Al  tau(  27) = (   0.6802709   0.3055841   0.0000000  )
        28           Al  tau(  28) = (   0.4577439   0.4417513   0.0000000  )
        29           Al  tau(  29) = (   0.6047776   0.4363442   0.0000000  )
        30           Al  tau(  30) = (   0.2996063   0.6652274   0.0000000  )
        31           Al  tau(  31) = (   0.4627755   0.5932497   0.0000000  )

     number of k points=     1  Methfessel-Paxton smearing, width (Ry)=  0.0500
                       cart. coord. in units 2pi/alat
        k(    1) = (   0.0000000   0.0000000   0.0000000), wk =   2.0000000

     Initial potential from superposition of free atoms

     starting charge   92.92414, renormalised to   93.00000

     negative rho (up, down):  7.322E-05 0.000E+00
     Starting wfcs are  124 randomized atomic wfcs

     Self-consistent Calculation

     iteration #  1     ecut=    80.00 Ry     beta= 0.40
     Davidson diagonalization with overlap
     c_bands:  1 eigenvalues not converged
     ethr =  1.00E-06,  avg # of iterations = 20.0

[...]

     total energy              =    -141.97340249 Ry
     Harris-Foulkes estimate   =    -141.97340252 Ry
     estimated scf accuracy    <       0.00000010 Ry

     iteration # 16     ecut=    80.00 Ry     beta= 0.40
     Davidson diagonalization with overlap
     ethr =  1.12E-10,  avg # of iterations =  4.0

[...]

     End of self-consistent calculation

          k = 0.0000 0.0000 0.0000 (330477 PWs)   bands (ev):

   -11.4587 -10.8344 -10.6797 -10.5837 -10.5366 -10.4469 -10.3902  -9.1876
    -9.0475  -8.9940  -8.8826  -8.8725  -8.6676  -8.2540  -8.1419  -8.1406
    -8.1144  -7.9021  -7.6537  -6.0615  -6.0007  -5.9550  -5.9510  -5.9030
    -5.8268  -5.6763  -5.5429  -5.4644  -5.4249  -5.2846  -5.2167  -4.7784
    -4.4730  -4.3408  -4.1367  -4.1325  -4.0304  -3.9587  -3.9368  -3.8757
    -3.8235  -3.7909  -3.7409  -3.7335  -2.5375  -2.4429  -2.3973  -2.3462
    -2.2951  -2.1898  -2.1817  -2.0755  -1.9454  -1.7870  -1.7060  -1.6151

     the Fermi energy is    -2.4736 ev

!    total energy              =    -141.97340247 Ry
     Harris-Foulkes estimate   =    -141.97340248 Ry
     estimated scf accuracy    <          8.0E-09 Ry

     The total energy is the sum of the following terms:

     one-electron contribution =    -670.66621558 Ry
     hartree contribution      =     344.06067062 Ry
     xc contribution           =     -63.39920467 Ry
     ewald contribution        =     248.08108723 Ry
     smearing contrib. (-TS)   =      -0.04974008 Ry

     convergence has been achieved in  16 iterations

     negative rho (up, down):  3.086E-05 0.000E+00

     Forces acting on atoms (cartesian axes, Ry/au):

     atom    1 type  1   force =    -0.00000349   -0.00000122    0.00000000
     atom    2 type  1   force =     0.00000286    0.00000165    0.00000000
     atom    3 type  1   force =    -0.00000232    0.00000270    0.00000000
     atom    4 type  1   force =     0.00000067   -0.00000893    0.00000000
     atom    5 type  1   force =     0.00000118   -0.00000336    0.00000000
     atom    6 type  1   force =    -0.00000280   -0.00000242    0.00000000
     atom    7 type  1   force =    -0.00000740    0.00000505    0.00000000
     atom    8 type  1   force =    -0.00000048   -0.00000028    0.00000000
     atom    9 type  1   force =    -0.00001048   -0.00000467    0.00000000
     atom   10 type  1   force =    -0.00000219    0.00000443    0.00000000
     atom   11 type  1   force =    -0.00000929   -0.00000674    0.00000000
     atom   12 type  1   force =    -0.00000107   -0.00000062    0.00000000
     atom   13 type  1   force =     0.00000396   -0.00000119    0.00000000
     atom   14 type  1   force =     0.00000274   -0.00000411    0.00000000
     atom   15 type  1   force =     0.00000095    0.00000403    0.00000000
     atom   16 type  1   force =    -0.00000499   -0.00000683    0.00000000
     atom   17 type  1   force =    -0.00000097    0.00000829    0.00000000
     atom   18 type  1   force =    -0.00000841   -0.00000091    0.00000000
     atom   19 type  1   force =     0.00001191    0.00000687    0.00000000
     atom   20 type  1   force =    -0.00000636   -0.00000554    0.00000000
     atom   21 type  1   force =     0.00000670   -0.00000498    0.00000000
     atom   22 type  1   force =    -0.00000797   -0.00000274    0.00000000
     atom   23 type  1   force =    -0.00000184   -0.00000106    0.00000000
     atom   24 type  1   force =     0.00000502    0.00000459    0.00000000
     atom   25 type  1   force =     0.00000048   -0.00000537    0.00000000
     atom   26 type  1   force =     0.00000861    0.00000497    0.00000000
     atom   27 type  1   force =     0.00000510    0.00000646    0.00000000
     atom   28 type  1   force =     0.00000648    0.00000205    0.00000000
     atom   29 type  1   force =     0.00000814    0.00000118    0.00000000
     atom   30 type  1   force =     0.00000970    0.00000560    0.00000000
     atom   31 type  1   force =    -0.00000441    0.00000310    0.00000000

     Total force =     0.000041     Total SCF correction =     0.000088
     SCF correction compared to forces is large: reduce conv_thr to get better values

     Computing stress (Cartesian axis) and pressure

     negative rho (up, down):  3.086E-05 0.000E+00
          total   stress  (Ry/bohr**3)                   (kbar)     P=    0.00
   0.00000003   0.00000000   0.00000000          0.00      0.00      0.00
   0.00000000   0.00000003   0.00000000          0.00      0.00      0.00
  -0.00000000  -0.00000000  -0.00000001         -0.00     -0.00     -0.00

     Writing output data file 6al_planar_2x2_vcr.save/

     General routines

     Parallel routines

      12h

   This run was terminated on:  13:28:11  26Nov2020

   JOB DONE.