     Program PWSCF v.6.3MaX starts on 26Nov2020 at  9: 5:34

     R & G space division:  proc/nbgrp/npool/nimage =       8
     Waiting for input...
     Reading input from standard input

     Current dimensions of program PWSCF are:
     Max number of different atomic species (ntypx) = 10
     Max number of k-points (npk) =  40000
     Max angular momentum in pseudopotentials (lmaxx) =  3

     Subspace diagonalization in iterative solution of the eigenvalue problem:
     a serial algorithm will be used

     bravais-lattice index     =            4
     lattice parameter (alat)  =      33.6810  a.u.
     unit-cell volume          =   37130.3117 (a.u.)^3
     number of atoms/cell      =           31
     number of atomic types    =            1
     number of electrons       =        93.00
     number of Kohn-Sham states=           56
     kinetic-energy cutoff     =      80.0000  Ry
     charge density cutoff     =     320.0000  Ry
     convergence threshold     =      1.0E-06
     mixing beta               =       0.4000
     number of iterations used =            8  plain     mixing
     Exchange-correlation      = PBE ( 1  4  3  4 0 0)
     nstep                     =          300

     celldm(1)=  33.680967  celldm(2)=   0.000000  celldm(3)=   1.122133
     celldm(4)=   0.000000  celldm(5)=   0.000000  celldm(6)=   0.000000

     crystal axes: (cart. coord. in units of alat)
               a(1) = (   1.000000   0.000000   0.000000 )
               a(2) = (  -0.500000   0.866025   0.000000 )
               a(3) = (   0.000000   0.000000   1.122133 )

     reciprocal axes: (cart. coord. in units 2 pi/alat)
               b(1) = (  1.000000  0.577350  0.000000 )
               b(2) = (  0.000000  1.154701  0.000000 )
               b(3) = (  0.000000  0.000000  0.891160 )

     PseudoPot. # 1 for Al read from file:
     ./Al.upf
     MD5 check sum: 4974d48a734c9d7d1eb6780a1419d19d
     Pseudo is Norm-conserving + core correction, Zval =  3.0
     Generated using ONCVPSP code by D. R. Hamann
     Using radial grid of 1876 points,  6 beta functions with:
                l(1) =   0
                l(2) =   0
                l(3) =   1
                l(4) =   1
                l(5) =   2
                l(6) =   2

     atomic species   valence    mass     pseudopotential
        Al             3.00    29.98200     Al( 1.00)

      2 Sym. Ops. (no inversion) found

   Cartesian axes

     site n.     atom                  positions (alat units)
         1           Al  tau(   1) = (  -0.0000000   0.1443393   0.0000000  )
         2           Al  tau(   2) = (   0.1250015   0.0721696   0.0000000  )
         3           Al  tau(   3) = (  -0.1249997   0.3608472   0.0000000  )
         4           Al  tau(   4) = (   0.0000018   0.2886775   0.0000000  )
         5           Al  tau(   5) = (  -0.2499994   0.5773550   0.0000000  )
         6           Al  tau(   6) = (  -0.1249979   0.5051854   0.0000000  )
         7           Al  tau(   7) = (  -0.3749991   0.7938629   0.0000000  )
         8           Al  tau(   8) = (  -0.2499976   0.7216932   0.0000000  )
         9           Al  tau(   9) = (   0.2500011   0.1443403   0.0000000  )
        10           Al  tau(  10) = (   0.3750027   0.0721706   0.0000000  )
        11           Al  tau(  11) = (   0.1250014   0.3608482   0.0000000  )
        12           Al  tau(  12) = (   0.2500030   0.2886785   0.0000000  )
        13           Al  tau(  13) = (   0.0000017   0.5773560   0.0000000  )
        14           Al  tau(  14) = (   0.1250033   0.5051864   0.0000000  )
        15           Al  tau(  15) = (  -0.1249980   0.7938639   0.0000000  )
        16           Al  tau(  16) = (   0.0000036   0.7216942   0.0000000  )
        17           Al  tau(  17) = (   0.5000023   0.1443413   0.0000000  )
        18           Al  tau(  18) = (   0.6250038   0.0721717   0.0000000  )
        19           Al  tau(  19) = (   0.3750026   0.3608492   0.0000000  )
        20           Al  tau(  20) = (   0.5000041   0.2886795   0.0000000  )
        21           Al  tau(  21) = (   0.2500029   0.5773571   0.0000000  )
        22           Al  tau(  22) = (   0.3750044   0.5051874   0.0000000  )
        23           Al  tau(  23) = (   0.2500047   0.7216953   0.0000000  )
        24           Al  tau(  24) = (   0.7500035   0.1443423   0.0000000  )
        25           Al  tau(  25) = (   0.8750050   0.0721727   0.0000000  )
        26           Al  tau(  26) = (   0.6250038   0.3608502   0.0000000  )
        27           Al  tau(  27) = (   0.7500053   0.2886805   0.0000000  )
        28           Al  tau(  28) = (   0.5000041   0.5773581   0.0000000  )
        29           Al  tau(  29) = (   0.6250056   0.5051884   0.0000000  )
        30           Al  tau(  30) = (   0.3750044   0.7938660   0.0000000  )
        31           Al  tau(  31) = (   0.5000059   0.7216963   0.0000000  )

     number of k points=     1  Methfessel-Paxton smearing, width (Ry)=  0.0500
                       cart. coord. in units 2pi/alat
        k(    1) = (   0.0000000   0.0000000   0.0000000), wk =   2.0000000

     Initial potential from superposition of free atoms

     starting charge   92.92414, renormalised to   93.00000

     negative rho (up, down):  9.278E-05 0.000E+00
     Starting wfcs are  124 randomized atomic wfcs

     Self-consistent Calculation

     iteration #  1     ecut=    80.00 Ry     beta= 0.40
     Davidson diagonalization with overlap
     ethr =  1.00E-02,  avg # of iterations =  2.0

     total energy              =    -140.64292158 Ry
     Harris-Foulkes estimate   =    -141.23599821 Ry
     estimated scf accuracy    <       1.54737361 Ry

[...]

     End of self-consistent calculation

          k = 0.0000 0.0000 0.0000 (448403 PWs)   bands (ev):

    -9.9530  -9.4484  -9.4331  -9.4330  -9.4260  -9.4258  -9.1459  -8.4050
    -8.4049  -8.3882  -8.3880  -8.3797  -8.3035  -8.2569  -8.2568  -7.5866
    -6.9325  -6.9325  -6.8232  -6.4865  -6.4773  -6.4772  -6.3702  -6.3700
    -5.4641  -4.8435  -4.8434  -4.8370  -4.7359  -4.7356  -4.4782  -4.4682
    -4.4428  -4.4427  -4.1225  -4.1224  -3.9779  -3.4712  -3.4688  -3.4687
    -3.4578  -3.4577  -3.4017  -3.2746  -3.2744  -3.2224  -3.2073  -2.9744
    -2.9653  -2.9653  -2.9389  -2.5198  -2.5197  -2.4497  -2.4493  -2.4314

     the Fermi energy is    -3.0911 ev

!    total energy              =    -140.93611223 Ry
     Harris-Foulkes estimate   =    -140.93611309 Ry
     estimated scf accuracy    <       0.00000098 Ry

     The total energy is the sum of the following terms:

     one-electron contribution =    -502.03640581 Ry
     hartree contribution      =     259.76365546 Ry
     xc contribution           =     -61.33578224 Ry
     ewald contribution        =     162.75343587 Ry
     smearing contrib. (-TS)   =      -0.08101551 Ry

     convergence has been achieved in  17 iterations

     Forces acting on atoms (cartesian axes, Ry/au):

     atom    1 type  1   force =     0.00117509    0.00068628    0.00000000
     atom    2 type  1   force =    -0.00000550   -0.00047968    0.00000000
     atom    3 type  1   force =    -0.00197260    0.00113650    0.00000000
     atom    4 type  1   force =    -0.00044877    0.00023979    0.00000000
     atom    5 type  1   force =    -0.00183650   -0.00106740    0.00000000
     atom    6 type  1   force =     0.00526971    0.00126314    0.00000000
     atom    7 type  1   force =     0.00000725   -0.00230774    0.00000000
     atom    8 type  1   force =     0.00372350    0.00393697    0.00000000
     atom    9 type  1   force =    -0.00114135    0.00066827    0.00000000
     atom   10 type  1   force =     0.00113285   -0.00065817    0.00000000
     atom   11 type  1   force =     0.00000820   -0.00131336    0.00000000
     atom   12 type  1   force =     0.00043922    0.00023837    0.00000000
     atom   13 type  1   force =     0.00064309   -0.00331605    0.00000000
     atom   14 type  1   force =    -0.00001047    0.00130230    0.00000000
     atom   15 type  1   force =    -0.00253783    0.00221183    0.00000000
     atom   16 type  1   force =     0.01311132    0.00758969    0.00000000
     atom   17 type  1   force =    -0.00318688    0.00110509    0.00000000
     atom   18 type  1   force =    -0.00000688   -0.01514862    0.00000000
     atom   19 type  1   force =     0.00199618    0.00113519    0.00000000
     atom   20 type  1   force =    -0.00155418   -0.00520322    0.00000000
     atom   21 type  1   force =    -0.00062077   -0.00332706    0.00000000
     atom   22 type  1   force =    -0.00526958    0.00127266    0.00000000
     atom   23 type  1   force =    -0.01313711    0.00758416    0.00000000
     atom   24 type  1   force =     0.00318107    0.00109416    0.00000000
     atom   25 type  1   force =    -0.00115715   -0.00065186    0.00000000
     atom   26 type  1   force =    -0.00000758    0.00214555    0.00000000
     atom   27 type  1   force =     0.00155321   -0.00519993    0.00000000
     atom   28 type  1   force =     0.00184001   -0.00108441    0.00000000
     atom   29 type  1   force =    -0.00001201   -0.00000422    0.00000000
     atom   30 type  1   force =     0.00255138    0.00220654    0.00000000
     atom   31 type  1   force =    -0.00372691    0.00394520    0.00000000

     Total force =     0.031218     Total SCF correction =     0.000765

     Computing stress (Cartesian axis) and pressure

          total   stress  (Ry/bohr**3)                   (kbar)     P=   -0.57
  -0.00000578   0.00000001   0.00000000         -0.85      0.00      0.00
   0.00000001  -0.00000578   0.00000000          0.00     -0.85      0.00
   0.00000000   0.00000000   0.00000001          0.00      0.00      0.00

     BFGS Geometry Optimization

     number of scf cycles    =   1
     number of bfgs steps    =   0

     enthalpy new            =    -140.9361122267 Ry

     new trust radius        =       0.0151691542 bohr
     new conv_thr            =       0.0000010000 Ry

     new unit-cell volume =  37119.57789 a.u.^3 (  5500.55387 Ang^3 )
     density =      0.28059 g/cm^3

CELL_PARAMETERS (alat= 33.68096681)
   0.999855444   0.000000206   0.000000000
  -0.499927543   0.865900117   0.000000000
   0.000000000   0.000000000   1.122132950

ATOMIC_POSITIONS (angstrom)
Al       0.000621686   2.572579115   0.000000000
Al       2.227602038   1.285854155   0.000000000
Al      -2.228615552   6.431122171   0.000000000
Al      -0.000204291   5.144539671   0.000000000
Al      -4.456115332  10.288260929   0.000000000
Al      -2.224750426   9.003385972   0.000000000
Al      -6.682711590  14.145909510   0.000000000
Al      -4.453140318  12.863105543   0.000000000
Al       4.454572740   2.572588699   0.000000000
Al       6.683381019   1.285778830   0.000000000
Al       2.227609173   6.429845058   0.000000000
Al       4.455442229   5.144558035   0.000000000
Al       0.000373305  10.287090278   0.000000000
Al       2.227632507   9.003425802   0.000000000
Al      -2.228881512  14.148319927   0.000000000
Al       0.007003469  12.865057311   0.000000000
Al       8.908667128   2.572838930   0.000000000
Al      11.137954667   1.278131032   0.000000000
Al       6.683837701   6.431159702   0.000000000
Al       8.909564203   5.141697998   0.000000000
Al       4.454881280  10.287103568   0.000000000
Al       6.680026591   9.003429233   0.000000000
Al       4.448292084  12.865073495   0.000000000
Al      13.367213095   2.572852264   0.000000000
Al      15.592522743   1.285820395   0.000000000
Al      11.137954188   6.431713399   0.000000000
Al      13.366385008   5.141718849   0.000000000
Al       8.911359962  10.288309266   0.000000000
Al      11.137985055   9.002772749   0.000000000
Al       6.684164557  14.148355353   0.000000000
Al       8.908447710  12.863167233   0.000000000

     Writing output data file 23al_planar_2x2_vcr.save/
     NEW-OLD atomic charge density approx. for the potential

     negative rho (up, down):  2.994E-07 0.000E+00
     extrapolated charge   92.97313, renormalised to   93.00000

[...]

     negative rho (up, down):  1.478E-07 0.000E+00

[...]

     enthalpy old            =    -140.9361122267 Ry
     enthalpy new            =    -140.9370756012 Ry

     CASE: enthalpy_new < enthalpy_old

     WARNING: bfgs curvature condition failed, Theta= 0.846
     new trust radius        =       0.0227504381 bohr
     new conv_thr            =       0.0000009634 Ry

[...]

     iteration #  2     ecut=    80.00 Ry     beta= 0.40
     Davidson diagonalization with overlap
     c_bands:  1 eigenvalues not converged
     ethr =  1.75E-06,  avg # of iterations = 20.0

[...]

     Writing output data file 23al_planar_2x2_vcr.save/
     NEW-OLD atomic charge density approx. for the potential

[...]

     Writing output data file 23al_planar_2x2_vcr.save/
     NEW-OLD atomic charge density approx. for the potential
     Check: negative starting charge=   -0.000121

[...]

     Writing output data file 23al_planar_2x2_vcr.save/
     Check: negative starting charge=   -0.000121
     NEW-OLD atomic charge density approx. for the potential
     Check: negative starting charge=   -0.000133

[...]

     WARNING: bfgs curvature condition failed, Theta= 0.958
     new trust radius        =       0.0306743324 bohr
     new conv_thr            =       0.0000010000 Ry

[...]

     CASE: enthalpy_new < enthalpy_old

[...]

     iteration #  9     ecut=    80.00 Ry     beta= 0.40
     Davidson diagonalization with overlap
     c_bands:  1 eigenvalues not converged
     ethr =  1.80E-09,  avg # of iterations = 20.0

[...]

     CASE: enthalpy_new > enthalpy_old

[...]

     Threshold (ethr) on eigenvalues was too large:
     Diagonalizing with lowered threshold

     Davidson diagonalization with overlap
     ethr =  9.30E-08,  avg # of iterations =  4.0

[...]

     new trust radius        =       0.0000015057 bohr

     trust_radius < trust_radius_min

     resetting bfgs history

     new conv_thr            =       0.0000005931 Ry

[...]

     new trust radius        =       0.0010240859 bohr
     new conv_thr            =       0.0000005931 Ry

[...]

     Self-consistent Calculation

[...]

     Threshold (ethr) on eigenvalues was too large:
     Diagonalizing with lowered threshold

     Davidson diagonalization with overlap
     ethr =  7.95E-09,  avg # of iterations =  8.0

[...]

     negative rho (up, down):  2.003E-08 0.000E+00

     total energy              =    -141.18637724 Ry
     Harris-Foulkes estimate   =    -141.18637747 Ry
     estimated scf accuracy    <       0.00000124 Ry

     iteration #  6     ecut=    80.00 Ry     beta= 0.40
     Davidson diagonalization with overlap
     ethr =  1.09E-09,  avg # of iterations =  3.0

     End of self-consistent calculation

          k = 0.0000 0.0000 0.0000 (448403 PWs)   bands (ev):

   -10.5183  -9.8732  -9.6867  -9.6845  -9.5350  -9.5347  -9.4448  -8.5820
    -8.5051  -8.5037  -8.4108  -8.4105  -8.3818  -8.2397  -8.2132  -8.2119
    -7.0712  -7.0688  -6.9816  -6.3909  -6.3176  -6.3166  -6.3023  -6.2500
    -6.2495  -4.9888  -4.9863  -4.7815  -4.6800  -4.6000  -4.5971  -4.4171
    -4.4152  -4.3335  -4.3270  -4.3264  -4.3028  -4.2508  -3.7330  -3.5704
    -3.5688  -3.4795  -3.4794  -3.4204  -3.0969  -2.9883  -2.9830  -2.7466
    -2.7449  -2.7415  -2.4382  -2.4373  -2.4255  -2.3503  -2.3501  -2.3461

     the Fermi energy is    -2.9611 ev

!    total energy              =    -141.18637727 Ry
     Harris-Foulkes estimate   =    -141.18637734 Ry
     estimated scf accuracy    <       0.00000009 Ry

     The total energy is the sum of the following terms:

     one-electron contribution =    -544.21989488 Ry
     hartree contribution      =     280.76670489 Ry
     xc contribution           =     -61.82012416 Ry
     ewald contribution        =     184.11274483 Ry
     smearing contrib. (-TS)   =      -0.02580795 Ry

     convergence has been achieved in   6 iterations

     Forces acting on atoms (cartesian axes, Ry/au):

     atom    1 type  1   force =     0.00491761    0.00284833    0.00000000
     atom    2 type  1   force =    -0.00000293   -0.00243554    0.00000000
     atom    3 type  1   force =    -0.00215620    0.00127682    0.00000000
     atom    4 type  1   force =    -0.00205988    0.00119770    0.00000000
     atom    5 type  1   force =    -0.00163108   -0.00094056    0.00000000
     atom    6 type  1   force =    -0.00028192   -0.00014780    0.00000000
     atom    7 type  1   force =    -0.00007052   -0.00245216    0.00000000
     atom    8 type  1   force =    -0.00009709   -0.00011262    0.00000000
     atom    9 type  1   force =    -0.00491782    0.00290065    0.00000000
     atom   10 type  1   force =    -0.00241298    0.00133406    0.00000000
     atom   11 type  1   force =     0.00003453   -0.00573291    0.00000000
     atom   12 type  1   force =     0.00204128    0.00117111    0.00000000
     atom   13 type  1   force =     0.00051920   -0.00112158    0.00000000
     atom   14 type  1   force =    -0.00005670   -0.00263029    0.00000000
     atom   15 type  1   force =    -0.00082406    0.00097551    0.00000000
     atom   16 type  1   force =     0.00037935    0.00017054    0.00000000
     atom   17 type  1   force =    -0.00109977    0.00020237    0.00000000
     atom   18 type  1   force =     0.00001531   -0.00038636    0.00000000
     atom   19 type  1   force =     0.00208069    0.00130453    0.00000000
     atom   20 type  1   force =     0.00002368    0.00011471    0.00000000
     atom   21 type  1   force =    -0.00042377   -0.00092099    0.00000000
     atom   22 type  1   force =     0.00028884   -0.00018945    0.00000000
     atom   23 type  1   force =    -0.00035187    0.00017264    0.00000000
     atom   24 type  1   force =     0.00113157    0.00009434    0.00000000
     atom   25 type  1   force =     0.00223279    0.00130080    0.00000000
     atom   26 type  1   force =     0.00001552    0.00202543    0.00000000
     atom   27 type  1   force =    -0.00001952    0.00035407    0.00000000
     atom   28 type  1   force =     0.00183761   -0.00103562    0.00000000
     atom   29 type  1   force =    -0.00007148   -0.00000121    0.00000000
     atom   30 type  1   force =     0.00061031    0.00086910    0.00000000
     atom   31 type  1   force =     0.00034930   -0.00020561    0.00000000

     Total force =     0.013245     Total SCF correction =     0.000237

     Computing stress (Cartesian axis) and pressure

          total   stress  (Ry/bohr**3)                   (kbar)     P=   -0.08
  -0.00000083  -0.00000021   0.00000000         -0.12     -0.03      0.00
  -0.00000021  -0.00000090   0.00000000         -0.03     -0.13      0.00
   0.00000000   0.00000000   0.00000000          0.00      0.00      0.00

     number of scf cycles    = 300
     number of bfgs steps    =  28

     enthalpy old            =    -141.1868550229 Ry
     enthalpy new            =    -141.1863772675 Ry

     CASE: enthalpy_new > enthalpy_old

     new trust radius        =       0.0000306943 bohr

     trust_radius < trust_radius_min

     resetting bfgs history

     new conv_thr            =       0.0000005931 Ry

     new unit-cell volume =  33949.83695 a.u.^3 (  5030.84673 Ang^3 )
     density =      0.30678 g/cm^3

CELL_PARAMETERS (alat= 33.68096681)
   0.956237701  -0.000345178   0.000000000
  -0.478417805   0.828255693   0.000000000
   0.000000000   0.000000000   1.122132950

ATOMIC_POSITIONS (angstrom)
Al       0.017412370   2.470133153   0.000000000
Al       2.129293793   1.026221278   0.000000000
Al      -2.410698228   6.310917599   0.000000000
Al      -0.177780905   5.021332817   0.000000000
Al      -4.168579177   9.895942148   0.000000000
Al      -1.817923646   8.793614085   0.000000000
Al      -6.395798767  13.209465432   0.000000000
Al      -3.949017518  12.483158326   0.000000000
Al       4.242809216   2.468522764   0.000000000
Al       6.425741959   1.208030440   0.000000000
Al       2.129092494   6.128643629   0.000000000
Al       4.435153617   5.020193072   0.000000000
Al       0.194609071  10.352108549   0.000000000
Al       2.127734240   8.649703066   0.000000000
Al      -1.591554973  13.445274154   0.000000000
Al       0.832649100  12.782735109   0.000000000
Al       8.867086891   2.028855092   0.000000000
Al      10.651451261   0.258453003   0.000000000
Al       6.669270833   6.308710782   0.000000000
Al       8.519563358   4.550968489   0.000000000
Al       4.061507317  10.351583574   0.000000000
Al       6.071189425   8.790063459   0.000000000
Al       3.417756065  12.781763012   0.000000000
Al      12.435913500   2.028229947   0.000000000
Al      14.876515581   1.204313612   0.000000000
Al      10.649892695   6.035272043   0.000000000
Al      12.779148176   4.549862282   0.000000000
Al       8.422373578   9.891700550   0.000000000
Al      10.648032623   8.605715704   0.000000000
Al       5.843796405  13.440400677   0.000000000
Al       8.199860346  12.478579892   0.000000000

     Writing output data file 23al_planar_2x2_vcr.save/
     Check: negative starting charge=   -0.000154
     NEW-OLD atomic charge density approx. for the potential
     Check: negative starting charge=   -0.000154

     negative rho (up, down):  3.161E-07 0.000E+00
     extrapolated charge   92.99676, renormalised to   93.00000

     Writing output data file 23al_planar_2x2_vcr.save/

     General routines

     Parallel routines

      14h

   This run was terminated on:   6:19:44  27Nov2020

   JOB DONE.