     Program PWSCF v.6.3MaX starts on 26Nov2020 at  9: 7:14

     R & G space division:  proc/nbgrp/npool/nimage =       8
     Waiting for input...
     Reading input from standard input

     Current dimensions of program PWSCF are:
     Max number of different atomic species (ntypx) = 10
     Max number of k-points (npk) =  40000
     Max angular momentum in pseudopotentials (lmaxx) =  3

     Subspace diagonalization in iterative solution of the eigenvalue problem:
     a serial algorithm will be used

     Message from routine find_sym:
     Not a group! Trying with lower acceptance parameter...
     Message from routine find_sym:
     Symmetry operations form a group

     bravais-lattice index     =            4
     lattice parameter (alat)  =      33.6810  a.u.
     unit-cell volume          =   37130.3117 (a.u.)^3
     number of atoms/cell      =           31
     number of atomic types    =            1
     number of electrons       =        93.00
     number of Kohn-Sham states=           56
     kinetic-energy cutoff     =      80.0000  Ry
     charge density cutoff     =     320.0000  Ry
     convergence threshold     =      1.0E-06
     mixing beta               =       0.4000
     number of iterations used =            8  plain     mixing
     Exchange-correlation      = PBE ( 1  4  3  4 0 0)
     nstep                     =          300

     celldm(1)=  33.680967  celldm(2)=   0.000000  celldm(3)=   1.122133
     celldm(4)=   0.000000  celldm(5)=   0.000000  celldm(6)=   0.000000

     crystal axes: (cart. coord. in units of alat)
               a(1) = (   1.000000   0.000000   0.000000 )
               a(2) = (  -0.500000   0.866025   0.000000 )
               a(3) = (   0.000000   0.000000   1.122133 )

     reciprocal axes: (cart. coord. in units 2 pi/alat)
               b(1) = (  1.000000  0.577350  0.000000 )
               b(2) = (  0.000000  1.154701  0.000000 )
               b(3) = (  0.000000  0.000000  0.891160 )

     PseudoPot. # 1 for Al read from file:
     ./Al.upf
     MD5 check sum: 4974d48a734c9d7d1eb6780a1419d19d
     Pseudo is Norm-conserving + core correction, Zval =  3.0
     Generated using ONCVPSP code by D. R. Hamann
     Using radial grid of 1876 points,  6 beta functions with:
                l(1) =   0
                l(2) =   0
                l(3) =   1
                l(4) =   1
                l(5) =   2
                l(6) =   2

     atomic species   valence    mass     pseudopotential
        Al             3.00    29.98200     Al( 1.00)

      2 Sym. Ops. (no inversion) found

   Cartesian axes

     site n.     atom                  positions (alat units)
         1           Al  tau(   1) = (  -0.0000000   0.1443393   0.0000000  )
         2           Al  tau(   2) = (   0.1250015   0.0721696   0.0000000  )
         3           Al  tau(   3) = (  -0.1249997   0.3608472   0.0000000  )
         4           Al  tau(   4) = (   0.0000018   0.2886775   0.0000000  )
         5           Al  tau(   5) = (  -0.2499994   0.5773550   0.0000000  )
         6           Al  tau(   6) = (  -0.1249979   0.5051854   0.0000000  )
         7           Al  tau(   7) = (  -0.3749991   0.7938629   0.0000000  )
         8           Al  tau(   8) = (  -0.2499976   0.7216932   0.0000000  )
         9           Al  tau(   9) = (   0.2500011   0.1443403   0.0000000  )
        10           Al  tau(  10) = (   0.3750027   0.0721706   0.0000000  )
        11           Al  tau(  11) = (   0.1250014   0.3608482   0.0000000  )
        12           Al  tau(  12) = (   0.2500030   0.2886785   0.0000000  )
        13           Al  tau(  13) = (   0.0000017   0.5773560   0.0000000  )
        14           Al  tau(  14) = (   0.1250033   0.5051864   0.0000000  )
        15           Al  tau(  15) = (  -0.1249980   0.7938639   0.0000000  )
        16           Al  tau(  16) = (   0.0000036   0.7216942   0.0000000  )
        17           Al  tau(  17) = (   0.5000023   0.1443413   0.0000000  )
        18           Al  tau(  18) = (   0.6250038   0.0721717   0.0000000  )
        19           Al  tau(  19) = (   0.3750026   0.3608492   0.0000000  )
        20           Al  tau(  20) = (   0.5000041   0.2886795   0.0000000  )
        21           Al  tau(  21) = (   0.2500029   0.5773571   0.0000000  )
        22           Al  tau(  22) = (   0.3750044   0.5051874   0.0000000  )
        23           Al  tau(  23) = (   0.1250032   0.7938649   0.0000000  )
        24           Al  tau(  24) = (   0.7500035   0.1443423   0.0000000  )
        25           Al  tau(  25) = (   0.8750050   0.0721727   0.0000000  )
        26           Al  tau(  26) = (   0.6250038   0.3608502   0.0000000  )
        27           Al  tau(  27) = (   0.7500053   0.2886805   0.0000000  )
        28           Al  tau(  28) = (   0.5000041   0.5773581   0.0000000  )
        29           Al  tau(  29) = (   0.6250056   0.5051884   0.0000000  )
        30           Al  tau(  30) = (   0.3750044   0.7938660   0.0000000  )
        31           Al  tau(  31) = (   0.5000059   0.7216963   0.0000000  )

     number of k points=     1  Methfessel-Paxton smearing, width (Ry)=  0.0500
                       cart. coord. in units 2pi/alat
        k(    1) = (   0.0000000   0.0000000   0.0000000), wk =   2.0000000

     Initial potential from superposition of free atoms

     starting charge   92.92414, renormalised to   93.00000

     negative rho (up, down):  9.278E-05 0.000E+00
     Starting wfcs are  124 randomized atomic wfcs

     Self-consistent Calculation

     iteration #  1     ecut=    80.00 Ry     beta= 0.40
     Davidson diagonalization with overlap
     ethr =  1.00E-02,  avg # of iterations =  2.0

     total energy              =    -140.64329071 Ry
     Harris-Foulkes estimate   =    -141.23603837 Ry
     estimated scf accuracy    <       1.54681465 Ry

[...]

     End of self-consistent calculation

          k = 0.0000 0.0000 0.0000 (448403 PWs)   bands (ev):

    -9.9529  -9.4481  -9.4332  -9.4329  -9.4259  -9.4259  -9.1460  -8.4049
    -8.4049  -8.3882  -8.3880  -8.3797  -8.3035  -8.2570  -8.2568  -7.5868
    -6.9325  -6.9323  -6.8233  -6.4866  -6.4773  -6.4772  -6.3702  -6.3701
    -5.4641  -4.8435  -4.8433  -4.8369  -4.7357  -4.7357  -4.4781  -4.4680
    -4.4428  -4.4428  -4.1227  -4.1226  -3.9778  -3.4709  -3.4689  -3.4687
    -3.4577  -3.4576  -3.4016  -3.2745  -3.2744  -3.2225  -3.2078  -2.9744
    -2.9654  -2.9652  -2.9389  -2.5198  -2.5196  -2.4504  -2.4495  -2.4315

     the Fermi energy is    -3.0911 ev

!    total energy              =    -140.93610602 Ry
     Harris-Foulkes estimate   =    -140.93610678 Ry
     estimated scf accuracy    <       0.00000085 Ry

     The total energy is the sum of the following terms:

     one-electron contribution =    -502.03503442 Ry
     hartree contribution      =     259.76201348 Ry
     xc contribution           =     -61.33561768 Ry
     ewald contribution        =     162.75357038 Ry
     smearing contrib. (-TS)   =      -0.08103778 Ry

     convergence has been achieved in  18 iterations

     Forces acting on atoms (cartesian axes, Ry/au):

     atom    1 type  1   force =    -0.00523047   -0.00126790    0.00000000
     atom    2 type  1   force =     0.00185252    0.00109972    0.00000000
     atom    3 type  1   force =     0.00044646   -0.00027287    0.00000000
     atom    4 type  1   force =     0.00200060   -0.00114263    0.00000000
     atom    5 type  1   force =     0.00002128    0.00050940    0.00000000
     atom    6 type  1   force =    -0.00118768   -0.00066068    0.00000000
     atom    7 type  1   force =    -0.00369084   -0.00393949    0.00000000
     atom    8 type  1   force =    -0.00004153    0.00229817    0.00000000
     atom    9 type  1   force =    -0.00000755    0.00000004    0.00000000
     atom   10 type  1   force =    -0.00186893    0.00108618    0.00000000
     atom   11 type  1   force =    -0.00152061    0.00516419    0.00000000
     atom   12 type  1   force =    -0.00002019   -0.00213338    0.00000000
     atom   13 type  1   force =     0.00115980    0.00069150    0.00000000
     atom   14 type  1   force =    -0.00315915   -0.00110172    0.00000000
     atom   15 type  1   force =     0.00377576   -0.00394246    0.00000000
     atom   16 type  1   force =    -0.00255267   -0.00218568    0.00000000
     atom   17 type  1   force =     0.00529499   -0.00128568    0.00000000
     atom   18 type  1   force =     0.00062576    0.00330970    0.00000000
     atom   19 type  1   force =     0.00155397    0.00515624    0.00000000
     atom   20 type  1   force =    -0.00202200   -0.00112354    0.00000000
     atom   21 type  1   force =    -0.00001187    0.01517583    0.00000000
     atom   22 type  1   force =     0.00319096   -0.00108236    0.00000000
     atom   23 type  1   force =     0.01313521   -0.00758110    0.00000000
     atom   24 type  1   force =    -0.00003232   -0.00134707    0.00000000
     atom   25 type  1   force =    -0.00063393    0.00328163    0.00000000
     atom   26 type  1   force =    -0.00040909   -0.00027659    0.00000000
     atom   27 type  1   force =    -0.00003649    0.00136856    0.00000000
     atom   28 type  1   force =    -0.00115876    0.00065528    0.00000000
     atom   29 type  1   force =     0.00114521   -0.00066236    0.00000000
     atom   30 type  1   force =    -0.01314715   -0.00758338    0.00000000
     atom   31 type  1   force =     0.00252868   -0.00220757    0.00000000

     Total force =     0.031230     Total SCF correction =     0.000758

     Computing stress (Cartesian axis) and pressure

          total   stress  (Ry/bohr**3)                   (kbar)     P=   -0.57
  -0.00000581   0.00000003   0.00000000         -0.85      0.00      0.00
   0.00000003  -0.00000576   0.00000000          0.00     -0.85      0.00
   0.00000000   0.00000000  -0.00000000          0.00      0.00     -0.00

     BFGS Geometry Optimization

     number of scf cycles    =   1
     number of bfgs steps    =   0

     enthalpy new            =    -140.9361060234 Ry

     new trust radius        =       0.0151774597 bohr
     new conv_thr            =       0.0000010000 Ry

     new unit-cell volume =  37119.56992 a.u.^3 (  5500.55269 Ang^3 )
     density =      0.28059 g/cm^3

CELL_PARAMETERS (alat= 33.68096681)
   0.999854769   0.000000665   0.000000000
  -0.499926809   0.865900286   0.000000000
   0.000000000   0.000000000   1.122132950

ATOMIC_POSITIONS (angstrom)
Al      -0.002766320   2.571546340   0.000000000
Al       2.228584202   1.286691433   0.000000000
Al      -2.227331169   6.430378415   0.000000000
Al       0.001094034   5.143810601   0.000000000
Al      -4.455124650  10.289097914   0.000000000
Al      -2.228161405   9.002371204   0.000000000
Al      -6.684657249  14.145049601   0.000000000
Al      -4.455123490  12.862242333   0.000000000
Al       4.455170804   2.572238367   0.000000000
Al       6.681788855   1.286705421   0.000000000
Al       2.226801725   6.433276320   0.000000000
Al       4.455198506   5.143307553   0.000000000
Al       0.000651412  10.289215419   0.000000000
Al       2.225969164   9.002159004   0.000000000
[...]

[...]

     Writing output data file 24al_planar_2x2_vcr.save/
     NEW-OLD atomic charge density approx. for the potential

[...]

     Writing output data file 24al_planar_2x2_vcr.save/
     NEW-OLD atomic charge density approx. for the potential
     Check: negative starting charge=   -0.000121

[...]

     Writing output data file 24al_planar_2x2_vcr.save/
     Check: negative starting charge=   -0.000121
     NEW-OLD atomic charge density approx. for the potential
     Check: negative starting charge=   -0.000133

[...]

     CASE: enthalpy_new > enthalpy_old

[...]

     Threshold (ethr) on eigenvalues was too large:
     Diagonalizing with lowered threshold

     Davidson diagonalization with overlap
     ethr =  8.71E-08,  avg # of iterations =  6.0

[...]

     WARNING: bfgs curvature condition failed, Theta= 0.564
     new trust radius        =       0.1071815826 bohr
     new conv_thr            =       0.0000002968 Ry

[...]

     WARNING: info= 91 for Hessian
     new trust radius        =       0.1607973546 bohr
     new conv_thr            =       0.0000003482 Ry

[...]

     WARNING: info= 89 for Hessian
     uphill step: resetting bfgs history

[...]

     CASE: enthalpy_new > enthalpy_old

[...]

     Total force =     0.000600     Total SCF correction =     0.000099
     SCF correction compared to forces is large: reduce conv_thr to get better values

[...]

     Total force =     0.000322     Total SCF correction =     0.000022

[...]

     Writing output data file 24al_planar_2x2_vcr.save/
     Check: negative starting charge=   -0.000132
     NEW-OLD atomic charge density approx. for the potential
     Check: negative starting charge=   -0.000132
     extrapolated charge   92.99967, renormalised to   93.00000

[...]

     Writing output data file 24al_planar_2x2_vcr.save/
     Check: negative starting charge=   -0.000132
     NEW-OLD atomic charge density approx. for the potential
     Check: negative starting charge=   -0.000132

     negative rho (up, down):  1.066E-08 0.000E+00
     extrapolated charge   93.00011, renormalised to   93.00000

[...]

     small trust_radius: resetting bfgs history

[...]

     number of scf cycles    = 253
     number of bfgs steps    = 249

     enthalpy old            =    -142.0762610880 Ry
     enthalpy new            =    -142.0762610893 Ry

     CASE: enthalpy_new < enthalpy_old

     Message from routine bfgs:
     history already reset at previous step: stopping
     small trust_radius: resetting bfgs history

     new trust radius        =       0.0000143114 bohr
     new conv_thr            =       0.0000000100 Ry

     new unit-cell volume =  26861.28884 a.u.^3 (  3980.43228 Ang^3 )
     density =      0.38774 g/cm^3

[...]

ATOMIC_POSITIONS (angstrom)
Al      -0.115657433   2.572867997   0.000000000
Al       0.505357653  -0.050394151   0.000000000
Al      -0.360275633   5.273368548   0.000000000
Al       1.823872385   4.211281796   0.000000000
Al      -4.394204668   8.265807486   0.000000000
Al      -2.340840099   6.704432473   0.000000000
Al      -4.118487118  10.749601934   0.000000000
Al      -3.986540383  13.261855402   0.000000000
Al       3.804434236   2.780153745   0.000000000
Al       5.857784639   1.218767073   0.000000000
Al       1.579118654   6.911929314   0.000000000
Al       3.911005687   5.546269710   0.000000000
Al      -1.804940535   9.158783634   0.000000000
Al       0.957935805   9.535282709   0.000000000
Al      -1.672763599  11.671011054   0.000000000
Al       0.922452724  12.255865079   0.000000000
Al       8.266658928   2.039720682   0.000000000
Al      10.549077066   0.468910979   0.000000000
Al       6.122420416   6.710061408   0.000000000
Al       6.052940820   3.892572740   0.000000000
Al       3.784440165   8.220569445   0.000000000
Al       6.089735261   9.389815859   0.000000000
Al       3.449100813  10.795969313   0.000000000
Al      10.516409246   3.148610252   0.000000000
Al      12.854405109   1.638124826   0.000000000
Al       8.319349213   4.929456337   0.000000000
Al      12.727747427   4.312517008   0.000000000
Al       8.372133748   7.819096202   0.000000000
Al      10.585853145   5.966148052   0.000000000
Al       5.934621421  11.998752832   0.000000000
Al       8.461344211  10.539144643   0.000000000

     Writing output data file 24al_planar_2x2_vcr.save/
     Check: negative starting charge=   -0.000132
     NEW-OLD atomic charge density approx. for the potential
     Check: negative starting charge=   -0.000132
     extrapolated charge   93.00001, renormalised to   93.00000

[...]

     Threshold (ethr) on eigenvalues was too large:
     Diagonalizing with lowered threshold

     Davidson diagonalization with overlap
     ethr =  1.28E-10,  avg # of iterations =  5.0

[...]

     bfgs converged in 254 scf cycles and 250 bfgs steps
     (criteria: energy <  1.0E-05 Ry, force <  1.0E-04Ry/Bohr, cell <  5.0E-05kbar)

     End of BFGS Geometry Optimization

     Final enthalpy =    -142.0762610914 Ry
Begin final coordinates
     new unit-cell volume =  26861.28884 a.u.^3 (  3980.43228 Ang^3 )
     density =      0.38774 g/cm^3

CELL_PARAMETERS (alat= 33.68096681)
   0.851429405   0.020993461   0.000000000
  -0.407050415   0.725798126   0.000000000
   0.000000000   0.000000000   1.122132950

ATOMIC_POSITIONS (angstrom)
Al      -0.115657433   2.572867997   0.000000000
Al       0.505357653  -0.050394151   0.000000000
Al      -0.360275633   5.273368548   0.000000000
Al       1.823872385   4.211281796   0.000000000
Al      -4.394204668   8.265807486   0.000000000
Al      -2.340840099   6.704432473   0.000000000
Al      -4.118487118  10.749601934   0.000000000
Al      -3.986540383  13.261855402   0.000000000
Al       3.804434236   2.780153745   0.000000000
Al       5.857784639   1.218767073   0.000000000
Al       1.579118654   6.911929314   0.000000000
Al       3.911005687   5.546269710   0.000000000
Al      -1.804940535   9.158783634   0.000000000
Al       0.957935805   9.535282709   0.000000000
Al      -1.672763599  11.671011054   0.000000000
Al       0.922452724  12.255865079   0.000000000
Al       8.266658928   2.039720682   0.000000000
Al      10.549077066   0.468910979   0.000000000
Al       6.122420416   6.710061408   0.000000000
Al       6.052940820   3.892572740   0.000000000
Al       3.784440165   8.220569445   0.000000000
Al       6.089735261   9.389815859   0.000000000
Al       3.449100813  10.795969313   0.000000000
Al      10.516409246   3.148610252   0.000000000
Al      12.854405109   1.638124826   0.000000000
Al       8.319349213   4.929456337   0.000000000
Al      12.727747427   4.312517008   0.000000000
Al       8.372133748   7.819096202   0.000000000
Al      10.585853145   5.966148052   0.000000000
Al       5.934621421  11.998752832   0.000000000
Al       8.461344211  10.539144643   0.000000000
End final coordinates

     Writing output data file 24al_planar_2x2_vcr.save/

     A final scf calculation at the relaxed structure.
     The G-vectors are recalculated for the final unit cell
     Results may differ from those at the preceding step.

     bravais-lattice index     =            4
     lattice parameter (alat)  =      33.6810  a.u.
     unit-cell volume          =   26861.2888 (a.u.)^3
     number of atoms/cell      =           31
     number of atomic types    =            1
     number of electrons       =        93.00
     number of Kohn-Sham states=           56
     kinetic-energy cutoff     =      80.0000  Ry
     charge density cutoff     =     320.0000  Ry
     convergence threshold     =      1.0E-08
     mixing beta               =       0.4000
     number of iterations used =            8  plain     mixing
     Exchange-correlation      = PBE ( 1  4  3  4 0 0)

     celldm(1)=  33.680967  celldm(2)=   0.000000  celldm(3)=   1.122133
     celldm(4)=   0.000000  celldm(5)=   0.000000  celldm(6)=   0.000000

     crystal axes: (cart. coord. in units of alat)
               a(1) = (   0.851429   0.020993   0.000000 )
               a(2) = (  -0.407050   0.725798   0.000000 )
               a(3) = (   0.000000   0.000000   1.122133 )

     reciprocal axes: (cart. coord. in units 2 pi/alat)
               b(1) = (  1.158476  0.649710  0.000000 )
               b(2) = ( -0.033509  1.359001  0.000000 )
               b(3) = (  0.000000  0.000000  0.891160 )

     PseudoPot. # 1 for Al read from file:
     ./Al.upf
     MD5 check sum: 4974d48a734c9d7d1eb6780a1419d19d
     Pseudo is Norm-conserving + core correction, Zval =  3.0
     Generated using ONCVPSP code by D. R. Hamann
     Using radial grid of 1876 points,  6 beta functions with:
                l(1) =   0
                l(2) =   0
                l(3) =   1
                l(4) =   1
                l(5) =   2
                l(6) =   2

     atomic species   valence    mass     pseudopotential
        Al             3.00    29.98200     Al( 1.00)

      2 Sym. Ops. (no inversion) found

   Cartesian axes

     site n.     atom                  positions (alat units)
         1           Al  tau(   1) = (  -0.0064892   0.1443550   0.0000000  )
         2           Al  tau(   2) = (   0.0283539  -0.0028274   0.0000000  )
         3           Al  tau(   3) = (  -0.0202139   0.2958710   0.0000000  )
         4           Al  tau(   4) = (   0.1023314   0.2362809   0.0000000  )
         5           Al  tau(   5) = (  -0.2465441   0.4637667   0.0000000  )
         6           Al  tau(   6) = (  -0.1313367   0.3761632   0.0000000  )
         7           Al  tau(   7) = (  -0.2310745   0.6031241   0.0000000  )
         8           Al  tau(   8) = (  -0.2236714   0.7440782   0.0000000  )
         9           Al  tau(   9) = (   0.2134541   0.1559851   0.0000000  )
        10           Al  tau(  10) = (   0.3286607   0.0683809   0.0000000  )
        11           Al  tau(  11) = (   0.0885991   0.3878052   0.0000000  )
        12           Al  tau(  12) = (   0.2194334   0.3111826   0.0000000  )
        13           Al  tau(  13) = (  -0.1012692   0.5138686   0.0000000  )
        14           Al  tau(  14) = (   0.0537466   0.5349927   0.0000000  )
        15           Al  tau(  15) = (  -0.0938532   0.6548213   0.0000000  )
        16           Al  tau(  16) = (   0.0517557   0.6876355   0.0000000  )
        17           Al  tau(  17) = (   0.4638145   0.1144419   0.0000000  )
        18           Al  tau(  18) = (   0.5918733   0.0263090   0.0000000  )
        19           Al  tau(  19) = (   0.3435085   0.3764791   0.0000000  )
        20           Al  tau(  20) = (   0.3396102   0.2183992   0.0000000  )
        21           Al  tau(  21) = (   0.2123323   0.4612286   0.0000000  )
        22           Al  tau(  22) = (   0.3416746   0.5268311   0.0000000  )
        23           Al  tau(  23) = (   0.1935175   0.6057256   0.0000000  )
        24           Al  tau(  24) = (   0.5900405   0.1766580   0.0000000  )
        25           Al  tau(  25) = (   0.7212176   0.0919097   0.0000000  )
        26           Al  tau(  26) = (   0.4667708   0.2765753   0.0000000  )
        27           Al  tau(  27) = (   0.7141112   0.2419609   0.0000000  )
        28           Al  tau(  28) = (   0.4697324   0.4387033   0.0000000  )
        29           Al  tau(  29) = (   0.5939367   0.3347406   0.0000000  )
        30           Al  tau(  30) = (   0.3329717   0.6732098   0.0000000  )
        31           Al  tau(  31) = (   0.4747377   0.5913161   0.0000000  )

     number of k points=     1  Methfessel-Paxton smearing, width (Ry)=  0.0500
                       cart. coord. in units 2pi/alat
        k(    1) = (   0.0000000   0.0000000   0.0000000), wk =   2.0000000

     Initial potential from superposition of free atoms

     starting charge   92.92414, renormalised to   93.00000

     negative rho (up, down):  7.284E-05 0.000E+00
     Starting wfcs are  124 randomized atomic wfcs

     Self-consistent Calculation

     iteration #  1     ecut=    80.00 Ry     beta= 0.40
     Davidson diagonalization with overlap
     c_bands:  3 eigenvalues not converged
     ethr =  1.00E-06,  avg # of iterations = 20.0

[...]

     negative rho (up, down):  2.390E-08 0.000E+00

[...]

     total energy              =    -142.07600067 Ry
     Harris-Foulkes estimate   =    -142.07600068 Ry
     estimated scf accuracy    <       0.00000002 Ry

     iteration # 18     ecut=    80.00 Ry     beta= 0.40
     Davidson diagonalization with overlap
     ethr =  1.69E-11,  avg # of iterations =  5.0

     End of self-consistent calculation

          k = 0.0000 0.0000 0.0000 (324517 PWs)   bands (ev):

   -11.5959 -10.9754 -10.8659 -10.7531 -10.6934 -10.5869 -10.1829  -9.2669
    -9.2358  -9.1643  -8.9079  -8.7141  -8.7053  -8.3331  -8.1918  -8.1543
    -8.0864  -7.9057  -7.7281  -6.2426  -6.2044  -6.1200  -6.0616  -5.8996
    -5.7350  -5.6664  -5.4648  -5.3222  -5.3006  -5.1906  -5.1585  -4.8528
    -4.4745  -4.4745  -4.1971  -4.1910  -4.1172  -4.0526  -4.0161  -3.9621
    -3.9536  -3.7343  -3.6933  -3.6681  -2.5566  -2.5446  -2.4641  -2.2952
    -2.1824  -2.1528  -1.9201  -1.8509  -1.7318  -1.7223  -1.6609  -1.5614

     the Fermi energy is    -2.4324 ev

!    total energy              =    -142.07600064 Ry
     Harris-Foulkes estimate   =    -142.07600064 Ry
     estimated scf accuracy    <          4.2E-09 Ry

     The total energy is the sum of the following terms:

     one-electron contribution =    -684.10206680 Ry
     hartree contribution      =     350.79626748 Ry
     xc contribution           =     -63.66159029 Ry
     ewald contribution        =     254.92129149 Ry
     smearing contrib. (-TS)   =      -0.02990251 Ry

     convergence has been achieved in  18 iterations

     Forces acting on atoms (cartesian axes, Ry/au):

     atom    1 type  1   force =     0.00000744   -0.00000537    0.00000000
     atom    2 type  1   force =    -0.00000191   -0.00000006    0.00000000
     atom    3 type  1   force =     0.00000222    0.00000114    0.00000000
     atom    4 type  1   force =     0.00000121   -0.00000288    0.00000000
     atom    5 type  1   force =     0.00000048   -0.00000438    0.00000000
     atom    6 type  1   force =     0.00000410    0.00000529    0.00000000
     atom    7 type  1   force =    -0.00001049   -0.00000326    0.00000000
     atom    8 type  1   force =     0.00000065   -0.00000266    0.00000000
     atom    9 type  1   force =    -0.00001580    0.00000538    0.00000000
     atom   10 type  1   force =    -0.00000450   -0.00000570    0.00000000
     atom   11 type  1   force =     0.00000470   -0.00000065    0.00000000
     atom   12 type  1   force =    -0.00000839   -0.00000878    0.00000000
     atom   13 type  1   force =     0.00000621    0.00000368    0.00000000
     atom   14 type  1   force =    -0.00000020   -0.00000345    0.00000000
     atom   15 type  1   force =    -0.00000280    0.00000033    0.00000000
     atom   16 type  1   force =    -0.00000343   -0.00000901    0.00000000
     atom   17 type  1   force =    -0.00000236   -0.00000914    0.00000000
     atom   18 type  1   force =     0.00000851   -0.00000183    0.00000000
     atom   19 type  1   force =    -0.00000603    0.00000632    0.00000000
     atom   20 type  1   force =    -0.00000947    0.00000770    0.00000000
     atom   21 type  1   force =    -0.00000665   -0.00000327    0.00000000
     atom   22 type  1   force =     0.00000401   -0.00000044    0.00000000
     atom   23 type  1   force =    -0.00000624    0.00000797    0.00000000
     atom   24 type  1   force =     0.00000742    0.00001211    0.00000000
     atom   25 type  1   force =     0.00000696   -0.00000131    0.00000000
     atom   26 type  1   force =     0.00000718   -0.00000039    0.00000000
     atom   27 type  1   force =     0.00000819    0.00000113    0.00000000
     atom   28 type  1   force =    -0.00000293    0.00001318    0.00000000
     atom   29 type  1   force =    -0.00000390    0.00000130    0.00000000
     atom   30 type  1   force =     0.00000062    0.00000462    0.00000000
     atom   31 type  1   force =     0.00001522   -0.00000758    0.00000000

     Total force =     0.000049     Total SCF correction =     0.000065
     SCF correction compared to forces is large: reduce conv_thr to get better values

     Computing stress (Cartesian axis) and pressure

          total   stress  (Ry/bohr**3)                   (kbar)     P=    0.00
   0.00000004   0.00000000   0.00000000          0.01      0.00      0.00
   0.00000000   0.00000003   0.00000000          0.00      0.00      0.00
   0.00000000   0.00000000  -0.00000001          0.00      0.00     -0.00

     Writing output data file 24al_planar_2x2_vcr.save/

     General routines

     Parallel routines

   This run was terminated on:  12: 9: 2  27Nov2020

   JOB DONE.