     Program PWSCF v.6.3MaX starts on 25Nov2020 at 19:16: 2

     R & G space division:  proc/nbgrp/npool/nimage =       8
     Waiting for input...
     Reading input from standard input

     Current dimensions of program PWSCF are:
     Max number of different atomic species (ntypx) = 10
     Max number of k-points (npk) =  40000
     Max angular momentum in pseudopotentials (lmaxx) =  3

     Subspace diagonalization in iterative solution of the eigenvalue problem:
     a serial algorithm will be used

     bravais-lattice index     =            4
     lattice parameter (alat)  =      33.6810  a.u.
     unit-cell volume          =   37130.3117 (a.u.)^3
     number of atoms/cell      =           31
     number of atomic types    =            1
     number of electrons       =        93.00
     number of Kohn-Sham states=           56
     kinetic-energy cutoff     =      80.0000  Ry
     charge density cutoff     =     320.0000  Ry
     convergence threshold     =      1.0E-06
     mixing beta               =       0.4000
     number of iterations used =            8  plain     mixing
     Exchange-correlation      = PBE ( 1  4  3  4 0 0)
     nstep                     =          300

     celldm(1)=  33.680967  celldm(2)=   0.000000  celldm(3)=   1.122133
     celldm(4)=   0.000000  celldm(5)=   0.000000  celldm(6)=   0.000000

     crystal axes: (cart. coord. in units of alat)
               a(1) = (   1.000000   0.000000   0.000000 )
               a(2) = (  -0.500000   0.866025   0.000000 )
               a(3) = (   0.000000   0.000000   1.122133 )

     reciprocal axes: (cart. coord. in units 2 pi/alat)
               b(1) = (  1.000000  0.577350  0.000000 )
               b(2) = (  0.000000  1.154701  0.000000 )
               b(3) = (  0.000000  0.000000  0.891160 )

     PseudoPot. # 1 for Al read from file:
     ./Al.upf
     MD5 check sum: 4974d48a734c9d7d1eb6780a1419d19d
     Pseudo is Norm-conserving + core correction, Zval =  3.0
     Generated using ONCVPSP code by D. R. Hamann
     Using radial grid of 1876 points,  6 beta functions with:
                l(1) =   0
                l(2) =   0
                l(3) =   1
                l(4) =   1
                l(5) =   2
                l(6) =   2

     atomic species   valence    mass     pseudopotential
        Al             3.00    29.98200     Al( 1.00)

      2 Sym. Ops. (no inversion) found

   Cartesian axes

     site n.     atom                  positions (alat units)
         1           Al  tau(   1) = (  -0.0000000   0.1443393   0.0000000  )
         2           Al  tau(   2) = (   0.1250015   0.0721696   0.0000000  )
         3           Al  tau(   3) = (  -0.1249997   0.3608472   0.0000000  )
         4           Al  tau(   4) = (  -0.2499994   0.5773550   0.0000000  )
         5           Al  tau(   5) = (  -0.1249979   0.5051854   0.0000000  )
         6           Al  tau(   6) = (  -0.3749991   0.7938629   0.0000000  )
         7           Al  tau(   7) = (  -0.2499976   0.7216932   0.0000000  )
         8           Al  tau(   8) = (   0.2500011   0.1443403   0.0000000  )
         9           Al  tau(   9) = (   0.3750027   0.0721706   0.0000000  )
        10           Al  tau(  10) = (   0.1250014   0.3608482   0.0000000  )
        11           Al  tau(  11) = (   0.2500030   0.2886785   0.0000000  )
        12           Al  tau(  12) = (   0.0000017   0.5773560   0.0000000  )
        13           Al  tau(  13) = (   0.1250033   0.5051864   0.0000000  )
        14           Al  tau(  14) = (  -0.1249980   0.7938639   0.0000000  )
        15           Al  tau(  15) = (   0.0000036   0.7216942   0.0000000  )
        16           Al  tau(  16) = (   0.5000023   0.1443413   0.0000000  )
        17           Al  tau(  17) = (   0.6250038   0.0721717   0.0000000  )
        18           Al  tau(  18) = (   0.3750026   0.3608492   0.0000000  )
        19           Al  tau(  19) = (   0.5000041   0.2886795   0.0000000  )
        20           Al  tau(  20) = (   0.2500029   0.5773571   0.0000000  )
        21           Al  tau(  21) = (   0.3750044   0.5051874   0.0000000  )
        22           Al  tau(  22) = (   0.1250032   0.7938649   0.0000000  )
        23           Al  tau(  23) = (   0.2500047   0.7216953   0.0000000  )
        24           Al  tau(  24) = (   0.7500035   0.1443423   0.0000000  )
        25           Al  tau(  25) = (   0.8750050   0.0721727   0.0000000  )
        26           Al  tau(  26) = (   0.6250038   0.3608502   0.0000000  )
        27           Al  tau(  27) = (   0.7500053   0.2886805   0.0000000  )
        28           Al  tau(  28) = (   0.5000041   0.5773581   0.0000000  )
        29           Al  tau(  29) = (   0.6250056   0.5051884   0.0000000  )
        30           Al  tau(  30) = (   0.3750044   0.7938660   0.0000000  )
        31           Al  tau(  31) = (   0.5000059   0.7216963   0.0000000  )

     number of k points=     1  Methfessel-Paxton smearing, width (Ry)=  0.0500
                       cart. coord. in units 2pi/alat
        k(    1) = (   0.0000000   0.0000000   0.0000000), wk =   2.0000000

     Initial potential from superposition of free atoms

     starting charge   92.92414, renormalised to   93.00000

     negative rho (up, down):  9.278E-05 0.000E+00
     Starting wfcs are  124 randomized atomic wfcs

     Self-consistent Calculation

     iteration #  1     ecut=    80.00 Ry     beta= 0.40
     Davidson diagonalization with overlap
     ethr =  1.00E-02,  avg # of iterations =  2.0

     total energy              =    -140.64236670 Ry
     Harris-Foulkes estimate   =    -141.23600001 Ry
     estimated scf accuracy    <       1.54820731 Ry

[...]

     End of self-consistent calculation

          k = 0.0000 0.0000 0.0000 (448403 PWs)   bands (ev):

    -9.9530  -9.4485  -9.4330  -9.4328  -9.4260  -9.4260  -9.1458  -8.4050
    -8.4048  -8.3882  -8.3880  -8.3798  -8.3034  -8.2571  -8.2570  -7.5863
    -6.9325  -6.9324  -6.8235  -6.4866  -6.4773  -6.4773  -6.3701  -6.3700
    -5.4640  -4.8436  -4.8434  -4.8371  -4.7357  -4.7355  -4.4780  -4.4681
    -4.4430  -4.4429  -4.1225  -4.1224  -3.9780  -3.4714  -3.4688  -3.4687
    -3.4577  -3.4576  -3.4018  -3.2745  -3.2744  -3.2223  -3.2072  -2.9743
    -2.9653  -2.9653  -2.9390  -2.5199  -2.5198  -2.4494  -2.4480  -2.4315

     the Fermi energy is    -3.0911 ev

!    total energy              =    -140.93611289 Ry
     Harris-Foulkes estimate   =    -140.93611320 Ry
     estimated scf accuracy    <       0.00000039 Ry

     The total energy is the sum of the following terms:

     one-electron contribution =    -502.03649872 Ry
     hartree contribution      =     259.76360630 Ry
     xc contribution           =     -61.33580966 Ry
     ewald contribution        =     162.75357038 Ry
     smearing contrib. (-TS)   =      -0.08098118 Ry

     convergence has been achieved in  17 iterations

     Forces acting on atoms (cartesian axes, Ry/au):

     atom    1 type  1   force =     0.00007637    0.01514780    0.00000000
     atom    2 type  1   force =     0.00316201   -0.00106235    0.00000000
     atom    3 type  1   force =     0.01315206   -0.00756249    0.00000000
     atom    4 type  1   force =     0.00528943   -0.00119207    0.00000000
     atom    5 type  1   force =     0.00065908    0.00333229    0.00000000
     atom    6 type  1   force =     0.00163357    0.00515999    0.00000000
     atom    7 type  1   force =    -0.00206834   -0.00117583    0.00000000
     atom    8 type  1   force =    -0.00115320    0.00064982    0.00000000
     atom    9 type  1   force =     0.00113568   -0.00063918    0.00000000
     atom   10 type  1   force =    -0.01308493   -0.00757593    0.00000000
     atom   11 type  1   force =     0.00252840   -0.00217595    0.00000000
     atom   12 type  1   force =    -0.00002526   -0.00127506    0.00000000
     atom   13 type  1   force =    -0.00059419    0.00329687    0.00000000
     atom   14 type  1   force =    -0.00046497   -0.00025551    0.00000000
     atom   15 type  1   force =     0.00004427    0.00126734    0.00000000
     atom   16 type  1   force =    -0.00002410    0.00051939    0.00000000
     atom   17 type  1   force =    -0.00107175   -0.00061126    0.00000000
     atom   18 type  1   force =    -0.00370424   -0.00398888    0.00000000
     atom   19 type  1   force =    -0.00002271    0.00235752    0.00000000
     atom   20 type  1   force =    -0.00529952   -0.00123723    0.00000000
     atom   21 type  1   force =     0.00185269    0.00108431    0.00000000
     atom   22 type  1   force =     0.00044270   -0.00031118    0.00000000
     atom   23 type  1   force =     0.00199909   -0.00117131    0.00000000
     atom   24 type  1   force =     0.00106368    0.00064342    0.00000000
     atom   25 type  1   force =    -0.00318792   -0.00115133    0.00000000
     atom   26 type  1   force =     0.00369702   -0.00393545    0.00000000
     atom   27 type  1   force =    -0.00258241   -0.00221795    0.00000000
     atom   28 type  1   force =     0.00000632   -0.00000946    0.00000000
     atom   29 type  1   force =    -0.00187769    0.00104793    0.00000000
     atom   30 type  1   force =    -0.00156163    0.00519088    0.00000000
     atom   31 type  1   force =    -0.00001953   -0.00214914    0.00000000

     Total force =     0.031207     Total SCF correction =     0.000435

     Computing stress (Cartesian axis) and pressure

          total   stress  (Ry/bohr**3)                   (kbar)     P=   -0.57
  -0.00000578  -0.00000001   0.00000000         -0.85     -0.00      0.00
  -0.00000001  -0.00000578   0.00000000         -0.00     -0.85      0.00
   0.00000000   0.00000000   0.00000000          0.00      0.00      0.00

     BFGS Geometry Optimization

     number of scf cycles    =   1
     number of bfgs steps    =   0

     enthalpy new            =    -140.9361128897 Ry

     new trust radius        =       0.0151712884 bohr
     new conv_thr            =       0.0000010000 Ry

     new unit-cell volume =  37119.58294 a.u.^3 (  5500.55462 Ang^3 )
     density =      0.28059 g/cm^3

CELL_PARAMETERS (alat= 33.68096681)
   0.999855497  -0.000000199   0.000000000
  -0.499927921   0.865900391   0.000000000
   0.000000000   0.000000000   1.122132950

ATOMIC_POSITIONS (angstrom)
Al       0.000039311   2.580230927   0.000000000
Al       2.229277569   1.285545067   0.000000000
Al      -2.220615803   6.426520960   0.000000000
Al      -4.452349398  10.288197621   0.000000000
Al      -2.227193680   9.004482409   0.000000000
Al      -6.681857190  14.149864565   0.000000000
Al      -4.456210229  12.860403225   0.000000000
Al       4.454565663   2.572577344   0.000000000
Al       6.683382350   1.285786275   0.000000000
Al       2.220679105   6.426531161   0.000000000
Al       4.456545770   5.143279237   0.000000000
Al       0.000015513  10.288171019   0.000000000
Al       2.227320135   9.004480976   0.000000000
Al      -2.227790607  14.147016529   0.000000000
Al       0.000084472  12.861713213   0.000000000
Al       8.910339989   2.572525640   0.000000000
Al      11.137391316   1.285818356   0.000000000
Al       6.680819354   6.428446376   0.000000000
Al       8.910372894   5.145695205   0.000000000
Al       4.452401816  10.288208346   0.000000000
Al       6.683791699   9.003327616   0.000000000
Al       2.227866557  14.147004382   0.000000000
Al       4.456295689  12.860440231   0.000000000
Al      13.366092453   2.572608576   0.000000000
Al      15.591448571   1.285549915   0.000000000
Al      11.139912282   6.428491958   0.000000000
Al      13.364195475   5.143291629   0.000000000
Al       8.910386062  10.288875264   0.000000000
Al      11.136994871   9.003325676   0.000000000
Al       6.681982985  14.149932835   0.000000000
Al       8.910404552  12.859940169   0.000000000

     Writing output data file 4al_planar_2x2_vcr.save/
     NEW-OLD atomic charge density approx. for the potential

     negative rho (up, down):  2.993E-07 0.000E+00
     extrapolated charge   92.97314, renormalised to   93.00000

[...]

     Threshold (ethr) on eigenvalues was too large:
     Diagonalizing with lowered threshold

     Davidson diagonalization with overlap
     ethr =  5.74E-08,  avg # of iterations =  6.0

     negative rho (up, down):  1.481E-07 0.000E+00

[...]

     enthalpy old            =    -140.9361128897 Ry
     enthalpy new            =    -140.9371150088 Ry

     CASE: enthalpy_new < enthalpy_old

     WARNING: bfgs curvature condition failed, Theta= 0.854
     new trust radius        =       0.0227536482 bohr
     new conv_thr            =       0.0000010000 Ry

[...]

     iteration #  1     ecut=    80.00 Ry     beta= 0.40
     Davidson diagonalization with overlap
     c_bands:  1 eigenvalues not converged
     ethr =  1.00E-06,  avg # of iterations = 20.0

[...]

     Writing output data file 4al_planar_2x2_vcr.save/
     NEW-OLD atomic charge density approx. for the potential

[...]

     Writing output data file 4al_planar_2x2_vcr.save/
     NEW-OLD atomic charge density approx. for the potential
     Check: negative starting charge=   -0.000121

[...]

     Writing output data file 4al_planar_2x2_vcr.save/
     Check: negative starting charge=   -0.000121
     NEW-OLD atomic charge density approx. for the potential
     Check: negative starting charge=   -0.000133

[...]

     WARNING: bfgs curvature condition failed, Theta= 0.945
     new trust radius        =       0.0298546209 bohr
     new conv_thr            =       0.0000010000 Ry

[...]

     CASE: enthalpy_new < enthalpy_old

[...]

     iteration #  2     ecut=    80.00 Ry     beta= 0.40
     Davidson diagonalization with overlap
     c_bands:  1 eigenvalues not converged
     ethr =  1.96E-07,  avg # of iterations = 20.0

[...]

     CASE: enthalpy_new > enthalpy_old

[...]

     new trust radius        =       0.0000002051 bohr

     trust_radius < trust_radius_min

     resetting bfgs history

     new conv_thr            =       0.0000004815 Ry

[...]

     new trust radius        =       0.0001886196 bohr
     new conv_thr            =       0.0000004815 Ry

[...]

     Self-consistent Calculation

[...]

     Threshold (ethr) on eigenvalues was too large:
     Diagonalizing with lowered threshold

     Davidson diagonalization with overlap
     ethr =  2.54E-08,  avg # of iterations =  2.0

[...]

     negative rho (up, down):  2.166E-08 0.000E+00

     total energy              =    -141.18717991 Ry
     Harris-Foulkes estimate   =    -141.18718002 Ry
     estimated scf accuracy    <       0.00000062 Ry

     iteration #  5     ecut=    80.00 Ry     beta= 0.40
     Davidson diagonalization with overlap
     ethr =  6.65E-10,  avg # of iterations =  8.0

     End of self-consistent calculation

          k = 0.0000 0.0000 0.0000 (448403 PWs)   bands (ev):

   -10.5223  -9.8813  -9.6882  -9.6872  -9.5428  -9.5424  -9.4509  -8.5832
    -8.5005  -8.4997  -8.4170  -8.4166  -8.3886  -8.2460  -8.2149  -8.2140
    -7.0767  -7.0757  -6.9780  -6.3878  -6.3116  -6.3111  -6.3040  -6.2541
    -6.2539  -4.9943  -4.9936  -4.7857  -4.6806  -4.6012  -4.5996  -4.4130
    -4.4122  -4.3344  -4.3272  -4.3269  -4.2951  -4.2530  -3.7367  -3.5706
    -3.5698  -3.4838  -3.4836  -3.4236  -3.0986  -2.9817  -2.9799  -2.7387
    -2.7369  -2.7368  -2.4318  -2.4315  -2.4262  -2.3555  -2.3552  -2.3495

     the Fermi energy is    -2.9585 ev

!    total energy              =    -141.18717987 Ry
     Harris-Foulkes estimate   =    -141.18717998 Ry
     estimated scf accuracy    <       0.00000014 Ry

     The total energy is the sum of the following terms:

     one-electron contribution =    -544.94702660 Ry
     hartree contribution      =     281.13087911 Ry
     xc contribution           =     -61.83032302 Ry
     ewald contribution        =     184.48421724 Ry
     smearing contrib. (-TS)   =      -0.02492660 Ry

     convergence has been achieved in   5 iterations

     Forces acting on atoms (cartesian axes, Ry/au):

     atom    1 type  1   force =    -0.00004680   -0.00038072    0.00000000
     atom    2 type  1   force =     0.00189542    0.00080936    0.00000000
     atom    3 type  1   force =    -0.00036337    0.00018788    0.00000000
     atom    4 type  1   force =    -0.00070766   -0.00075094    0.00000000
     atom    5 type  1   force =     0.00176894    0.00124576    0.00000000
     atom    6 type  1   force =    -0.00099676   -0.00019223    0.00000000
     atom    7 type  1   force =    -0.00053967   -0.00032773    0.00000000
     atom    8 type  1   force =    -0.00022672    0.00011486    0.00000000
     atom    9 type  1   force =     0.00687526   -0.00406631    0.00000000
     atom   10 type  1   force =     0.00023800    0.00016249    0.00000000
     atom   11 type  1   force =     0.00031457   -0.00202656    0.00000000
     atom   12 type  1   force =     0.00005783   -0.00044165    0.00000000
     atom   13 type  1   force =    -0.00166590    0.00136140    0.00000000
     atom   14 type  1   force =    -0.00345266   -0.00202649    0.00000000
     atom   15 type  1   force =     0.00001920    0.00819370    0.00000000
     atom   16 type  1   force =     0.00013768    0.00411628    0.00000000
     atom   17 type  1   force =    -0.00709376   -0.00411467    0.00000000
     atom   18 type  1   force =    -0.00027901    0.00087148    0.00000000
     atom   19 type  1   force =    -0.00019965    0.00050353    0.00000000
     atom   20 type  1   force =     0.00050328   -0.00073147    0.00000000
     atom   21 type  1   force =     0.00094097    0.00049389    0.00000000
     atom   22 type  1   force =     0.00344295   -0.00195433    0.00000000
     atom   23 type  1   force =     0.00042703   -0.00033031    0.00000000
     atom   24 type  1   force =     0.00033997    0.00024496    0.00000000
     atom   25 type  1   force =    -0.00190659    0.00078803    0.00000000
     atom   26 type  1   force =     0.00045431    0.00104006    0.00000000
     atom   27 type  1   force =    -0.00021567   -0.00217498    0.00000000
     atom   28 type  1   force =    -0.00005996    0.00005449    0.00000000
     atom   29 type  1   force =    -0.00072906    0.00041355    0.00000000
     atom   30 type  1   force =     0.00097039   -0.00001498    0.00000000
     atom   31 type  1   force =     0.00009743   -0.00106835    0.00000000

     Total force =     0.016865     Total SCF correction =     0.000282

     Computing stress (Cartesian axis) and pressure

          total   stress  (Ry/bohr**3)                   (kbar)     P=   -0.05
  -0.00000050   0.00000006   0.00000000         -0.07      0.01      0.00
   0.00000006  -0.00000044   0.00000000          0.01     -0.06      0.00
   0.00000000   0.00000000   0.00000001          0.00      0.00      0.00

     number of scf cycles    = 300
     number of bfgs steps    =  29

     enthalpy old            =    -141.1876676827 Ry
     enthalpy new            =    -141.1871798726 Ry

     CASE: enthalpy_new > enthalpy_old

     new trust radius        =       0.0000012335 bohr

     trust_radius < trust_radius_min

     resetting bfgs history

     new conv_thr            =       0.0000004815 Ry

     new unit-cell volume =  33901.50213 a.u.^3 (  5023.68425 Ang^3 )
     density =      0.30722 g/cm^3

CELL_PARAMETERS (alat= 33.68096681)
   0.955444504   0.000109933   0.000000000
  -0.477627057   0.827535573   0.000000000
   0.000000000   0.000000000   1.122132950

ATOMIC_POSITIONS (angstrom)
Al      -0.000003700   3.425762515   0.000000000
Al       1.787527544   1.660638753   0.000000000
Al      -1.291226348   5.662785944   0.000000000
Al      -3.935173334   9.649627826   0.000000000
Al      -1.923761497   8.093947367   0.000000000
Al      -6.382443078  13.890509791   0.000000000
Al      -4.551751084  12.120431695   0.000000000
Al       4.234582859   2.472870023   0.000000000
Al       6.411324750   1.215400274   0.000000000
Al       1.291335763   5.662554408   0.000000000
Al       3.713558109   4.997717526   0.000000000
Al       0.002891982   9.807264487   0.000000000
Al       1.928539083   8.092254142   0.000000000
Al      -2.312247891  13.414575310   0.000000000
Al       0.001362844  12.320643896   0.000000000
Al       8.514209899   2.672852777   0.000000000
Al      10.618609506   1.216005508   0.000000000
Al       6.066965815   5.960311029   0.000000000
Al       8.515439017   5.259734267   0.000000000
Al       3.937138744   9.651560351   0.000000000
Al       6.290837740   8.549607647   0.000000000
Al       2.315143075  13.414422501   0.000000000
Al       4.555659958  12.121492347   0.000000000
Al      12.795387704   2.472838973   0.000000000
Al      15.242643910   1.661344217   0.000000000
Al      10.962634551   5.961300416   0.000000000
Al      13.315862816   4.998243257   0.000000000
Al       8.514397412   9.834587267   0.000000000
Al      10.738827381   8.551231417   0.000000000
Al       6.386045811  13.891263431   0.000000000
Al       8.516458807  12.402843159   0.000000000

     Writing output data file 4al_planar_2x2_vcr.save/
     Check: negative starting charge=   -0.000153
     NEW-OLD atomic charge density approx. for the potential
     Check: negative starting charge=   -0.000153

     negative rho (up, down):  5.354E-07 0.000E+00
     extrapolated charge   92.99798, renormalised to   93.00000

     Writing output data file 4al_planar_2x2_vcr.save/

     General routines

     Parallel routines

   This run was terminated on:  23:19:23  26Nov2020

   JOB DONE.