     Program PWSCF v.6.3MaX starts on 25Nov2020 at 11:27:22

     R & G space division:  proc/nbgrp/npool/nimage =       8
     Waiting for input...
     Reading input from standard input

     Current dimensions of program PWSCF are:
     Max number of different atomic species (ntypx) = 10
     Max number of k-points (npk) =  40000
     Max angular momentum in pseudopotentials (lmaxx) =  3

     Subspace diagonalization in iterative solution of the eigenvalue problem:
     a serial algorithm will be used

     bravais-lattice index     =            4
     lattice parameter (alat)  =      16.8405  a.u.
     unit-cell volume          =    9282.5779 (a.u.)^3
     number of atoms/cell      =            7
     number of atomic types    =            1
     number of electrons       =        21.00
     number of Kohn-Sham states=           15
     kinetic-energy cutoff     =      80.0000  Ry
     charge density cutoff     =     320.0000  Ry
     convergence threshold     =      1.0E-06
     mixing beta               =       0.4000
     number of iterations used =            8  plain     mixing
     Exchange-correlation      = PBE ( 1  4  3  4 0 0)
     nstep                     =          300

     celldm(1)=  16.840483  celldm(2)=   0.000000  celldm(3)=   2.244266
     celldm(4)=   0.000000  celldm(5)=   0.000000  celldm(6)=   0.000000

     crystal axes: (cart. coord. in units of alat)
               a(1) = (   1.000000   0.000000   0.000000 )
               a(2) = (  -0.500000   0.866025   0.000000 )
               a(3) = (   0.000000   0.000000   2.244266 )

     reciprocal axes: (cart. coord. in units 2 pi/alat)
               b(1) = (  1.000000  0.577350  0.000000 )
               b(2) = (  0.000000  1.154701  0.000000 )
               b(3) = (  0.000000  0.000000  0.445580 )

     PseudoPot. # 1 for Al read from file:
     ./Al.upf
     MD5 check sum: 4974d48a734c9d7d1eb6780a1419d19d
     Pseudo is Norm-conserving + core correction, Zval =  3.0
     Generated using ONCVPSP code by D. R. Hamann
     Using radial grid of 1876 points,  6 beta functions with:
                l(1) =   0
                l(2) =   0
                l(3) =   1
                l(4) =   1
                l(5) =   2
                l(6) =   2

     atomic species   valence    mass     pseudopotential
        Al             3.00    29.98200     Al( 1.00)

      4 Sym. Ops. (no inversion) found

   Cartesian axes

     site n.     atom                  positions (alat units)
         1           Al  tau(   1) = (   0.0000001   0.2886786   0.0000000  )
         2           Al  tau(   2) = (   0.2500030   0.1443392   0.0000000  )
         3           Al  tau(   3) = (   0.5000023   0.2886806   0.0000000  )
         4           Al  tau(   4) = (   0.7500053   0.1443413   0.0000000  )
         5           Al  tau(   5) = (  -0.2499995   0.7216943   0.0000000  )
         6           Al  tau(   6) = (   0.0000036   0.5773550   0.0000000  )
         7           Al  tau(   7) = (   0.2500029   0.7216963   0.0000000  )

     number of k points=     1  Methfessel-Paxton smearing, width (Ry)=  0.0500
                       cart. coord. in units 2pi/alat
        k(    1) = (   0.0000000   0.0000000   0.0000000), wk =   2.0000000

     Initial potential from superposition of free atoms

     starting charge   20.98287, renormalised to   21.00000

     negative rho (up, down):  2.280E-05 0.000E+00
     Starting wfcs are   28 randomized atomic wfcs

     Self-consistent Calculation

     iteration #  1     ecut=    80.00 Ry     beta= 0.40
     Davidson diagonalization with overlap
     ethr =  1.00E-02,  avg # of iterations =  2.0

     total energy              =     -31.66583362 Ry
     Harris-Foulkes estimate   =     -31.75255838 Ry
     estimated scf accuracy    <       0.28997760 Ry

[...]

     End of self-consistent calculation

          k = 0.0000 0.0000 0.0000 (111965 PWs)   bands (ev):

    -9.6463  -8.0779  -8.0777  -7.5211  -6.5569  -6.5566  -4.1832  -3.7999
    -3.2639  -2.8087  -2.8085  -2.2412  -2.2411  -1.7277  -0.8767

     the Fermi energy is    -2.6614 ev

!    total energy              =     -31.67665054 Ry
     Harris-Foulkes estimate   =     -31.67665074 Ry
     estimated scf accuracy    <       0.00000098 Ry

     The total energy is the sum of the following terms:

     one-electron contribution =    -103.79139075 Ry
     hartree contribution      =      53.98842600 Ry
     xc contribution           =     -13.76102298 Ry
     ewald contribution        =      31.90171854 Ry
     smearing contrib. (-TS)   =      -0.01438134 Ry

     convergence has been achieved in   9 iterations

     Forces acting on atoms (cartesian axes, Ry/au):

     atom    1 type  1   force =     0.00000000    0.00001303    0.00000000
     atom    2 type  1   force =    -0.00239964    0.00140907    0.00000000
     atom    3 type  1   force =     0.00000000    0.01090411    0.00000000
     atom    4 type  1   force =     0.00239964    0.00140907    0.00000000
     atom    5 type  1   force =    -0.00949237   -0.00545841    0.00000000
     atom    6 type  1   force =     0.00000000   -0.00281845    0.00000000
     atom    7 type  1   force =     0.00949237   -0.00545841    0.00000000

     Total force =     0.019548     Total SCF correction =     0.000570

     Computing stress (Cartesian axis) and pressure

          total   stress  (Ry/bohr**3)                   (kbar)     P=   -1.45
  -0.00001477   0.00000000   0.00000000         -2.17      0.00      0.00
   0.00000000  -0.00001473   0.00000000          0.00     -2.17      0.00
   0.00000000  -0.00000000  -0.00000008          0.00     -0.00     -0.01

     BFGS Geometry Optimization

     number of scf cycles    =   1
     number of bfgs steps    =   0

     enthalpy new            =     -31.6766505404 Ry

     new trust radius        =       0.0109498585 bohr
     new conv_thr            =       0.0000010000 Ry

     new unit-cell volume =   9275.73422 a.u.^3 (  1374.52198 Ang^3 )
     density =      0.25355 g/cm^3

CELL_PARAMETERS (alat= 16.84048341)
   0.999630779   0.000000000   0.000000000
  -0.499815390   0.865706552   0.000000000
   0.000000000   0.000000000   2.244265901

ATOMIC_POSITIONS (angstrom)
Al       0.000000586   2.571647589   0.000000000
Al       2.225834776   1.286565214   0.000000000
Al       4.454175030   2.577426972   0.000000000
Al       6.682549129   1.286583403   0.000000000
Al      -2.232093937   6.426195649   0.000000000
Al       0.000032087   5.141771282   0.000000000
Al       2.232124266   6.426213838   0.000000000

     Writing output data file 8al_planar_2x2_vcr.save/
     NEW-OLD atomic charge density approx. for the potential

     negative rho (up, down):  1.043E-07 0.000E+00
     extrapolated charge   20.98452, renormalised to   21.00000

[...]

     negative rho (up, down):  5.170E-08 0.000E+00

[...]

     enthalpy old            =     -31.6766505404 Ry
     enthalpy new            =     -31.6771175703 Ry

     CASE: enthalpy_new < enthalpy_old

     WARNING: bfgs curvature condition failed, Theta= 0.849
     new trust radius        =       0.0164187276 bohr
     new conv_thr            =       0.0000004670 Ry

[...]

     iteration #  1     ecut=    80.00 Ry     beta= 0.40
     Davidson diagonalization with overlap
     c_bands:  1 eigenvalues not converged
     ethr =  1.00E-06,  avg # of iterations = 20.0

[...]

     CASE: enthalpy_new > enthalpy_old

[...]

     iteration #  1     ecut=    80.00 Ry     beta= 0.40
     Davidson diagonalization with overlap
     c_bands:  4 eigenvalues not converged
     ethr =  1.00E-06,  avg # of iterations = 20.0

[...]

     WARNING: bfgs curvature condition failed, Theta= 0.943
     new trust radius        =       0.0973976974 bohr
     new conv_thr            =       0.0000010000 Ry

[...]

     CASE: enthalpy_new < enthalpy_old

[...]

     new trust radius        =       0.0000014453 bohr

     trust_radius < trust_radius_min

     resetting bfgs history

     new conv_thr            =       0.0000005973 Ry

[...]

     Threshold (ethr) on eigenvalues was too large:
     Diagonalizing with lowered threshold

     Davidson diagonalization with overlap
     ethr =  1.63E-08,  avg # of iterations =  5.0

[...]

     Threshold (ethr) on eigenvalues was too large:
     Diagonalizing with lowered threshold

     Davidson diagonalization with overlap
     ethr =  2.71E-08,  avg # of iterations =  4.0

[...]

     new trust radius        =       0.0000002363 bohr

     trust_radius < trust_radius_min

     resetting bfgs history

     new conv_thr            =       0.0000005973 Ry

[...]

     Self-consistent Calculation

[...]

     negative rho (up, down):  5.272E-08 0.000E+00

     total energy              =     -31.73490362 Ry
     Harris-Foulkes estimate   =     -31.73491100 Ry
     estimated scf accuracy    <       0.00001849 Ry

     iteration #  4     ecut=    80.00 Ry     beta= 0.40
     Davidson diagonalization with overlap
     ethr =  8.80E-08,  avg # of iterations =  2.0

     End of self-consistent calculation

          k = 0.0000 0.0000 0.0000 (111965 PWs)   bands (ev):

   -10.5583  -7.9875  -7.9763  -7.9734  -7.0135  -6.8577  -6.8497  -4.3092
    -2.1180  -2.0295  -2.0101  -1.8452  -1.8406  -1.8201  -0.9911

     the Fermi energy is    -2.0101 ev

!    total energy              =     -31.73490692 Ry
     Harris-Foulkes estimate   =     -31.73490692 Ry
     estimated scf accuracy    <       0.00000015 Ry

     The total energy is the sum of the following terms:

     one-electron contribution =    -128.79864762 Ry
     hartree contribution      =      66.43460715 Ry
     xc contribution           =     -13.95095563 Ry
     ewald contribution        =      44.65046626 Ry
     smearing contrib. (-TS)   =      -0.07037708 Ry

     convergence has been achieved in   4 iterations

     Forces acting on atoms (cartesian axes, Ry/au):

     atom    1 type  1   force =     0.00000000    0.00054956    0.00000000
     atom    2 type  1   force =    -0.00623783    0.00405982    0.00000000
     atom    3 type  1   force =    -0.00000000   -0.00752339    0.00000000
     atom    4 type  1   force =     0.00623783    0.00405982    0.00000000
     atom    5 type  1   force =     0.00565411    0.00354682    0.00000000
     atom    6 type  1   force =    -0.00000000   -0.00823947    0.00000000
     atom    7 type  1   force =    -0.00565411    0.00354682    0.00000000

     Total force =     0.018019     Total SCF correction =     0.000152

     Computing stress (Cartesian axis) and pressure

          total   stress  (Ry/bohr**3)                   (kbar)     P=   -1.90
  -0.00002268  -0.00000000   0.00000000         -3.34     -0.00      0.00
  -0.00000000  -0.00001595   0.00000000         -0.00     -2.35      0.00
   0.00000000   0.00000000  -0.00000011          0.00      0.00     -0.02

     number of scf cycles    = 300
     number of bfgs steps    =  18

     enthalpy old            =     -31.7353181298 Ry
     enthalpy new            =     -31.7349069163 Ry

     CASE: enthalpy_new > enthalpy_old

     new trust radius        =       0.0022546813 bohr
     new conv_thr            =       0.0000005973 Ry

     new unit-cell volume =   7240.82983 a.u.^3 (  1072.98027 Ang^3 )
     density =      0.32480 g/cm^3

CELL_PARAMETERS (alat= 16.84048341)
   0.882588416  -0.000000000   0.000000000
  -0.441294208   0.765406500   0.000000000
   0.000000000   0.000000000   2.244265901

ATOMIC_POSITIONS (angstrom)
Al       0.000000517   2.275583413   0.000000000
Al       2.236261074   0.979164589   0.000000000
Al       3.932655303   2.954726229   0.000000000
Al       5.629079415   0.979180671   0.000000000
Al      -2.558778555   5.345195377   0.000000000
Al       0.000028330   4.857860704   0.000000000
Al       2.558805334   5.345211459   0.000000000

     Writing output data file 8al_planar_2x2_vcr.save/
     NEW-OLD atomic charge density approx. for the potential

     negative rho (up, down):  2.857E-07 0.000E+00
     extrapolated charge   21.01670, renormalised to   21.00000

     Writing output data file 8al_planar_2x2_vcr.save/

     General routines

     Parallel routines

      43h

   This run was terminated on:  13:10:23  25Nov2020

   JOB DONE.