     Program PWSCF v.6.3MaX starts on 26Nov2020 at  0:34:24

     R & G space division:  proc/nbgrp/npool/nimage =       8
     Waiting for input...
     Reading input from standard input

     Current dimensions of program PWSCF are:
     Max number of different atomic species (ntypx) = 10
     Max number of k-points (npk) =  40000
     Max angular momentum in pseudopotentials (lmaxx) =  3

     Subspace diagonalization in iterative solution of the eigenvalue problem:
     a serial algorithm will be used

     bravais-lattice index     =            4
     lattice parameter (alat)  =      33.6810  a.u.
     unit-cell volume          =   37130.3117 (a.u.)^3
     number of atoms/cell      =           31
     number of atomic types    =            1
     number of electrons       =        93.00
     number of Kohn-Sham states=           56
     kinetic-energy cutoff     =      80.0000  Ry
     charge density cutoff     =     320.0000  Ry
     convergence threshold     =      1.0E-06
     mixing beta               =       0.4000
     number of iterations used =            8  plain     mixing
     Exchange-correlation      = PBE ( 1  4  3  4 0 0)
     nstep                     =          300

     celldm(1)=  33.680967  celldm(2)=   0.000000  celldm(3)=   1.122133
     celldm(4)=   0.000000  celldm(5)=   0.000000  celldm(6)=   0.000000

     crystal axes: (cart. coord. in units of alat)
               a(1) = (   1.000000   0.000000   0.000000 )
               a(2) = (  -0.500000   0.866025   0.000000 )
               a(3) = (   0.000000   0.000000   1.122133 )

     reciprocal axes: (cart. coord. in units 2 pi/alat)
               b(1) = (  1.000000  0.577350  0.000000 )
               b(2) = (  0.000000  1.154701  0.000000 )
               b(3) = (  0.000000  0.000000  0.891160 )

     PseudoPot. # 1 for Al read from file:
     ./Al.upf
     MD5 check sum: 4974d48a734c9d7d1eb6780a1419d19d
     Pseudo is Norm-conserving + core correction, Zval =  3.0
     Generated using ONCVPSP code by D. R. Hamann
     Using radial grid of 1876 points,  6 beta functions with:
                l(1) =   0
                l(2) =   0
                l(3) =   1
                l(4) =   1
                l(5) =   2
                l(6) =   2

     atomic species   valence    mass     pseudopotential
        Al             3.00    29.98200     Al( 1.00)

      2 Sym. Ops. (no inversion) found

   Cartesian axes

     site n.     atom                  positions (alat units)
         1           Al  tau(   1) = (  -0.0000000   0.1443393   0.0000000  )
         2           Al  tau(   2) = (   0.1250015   0.0721696   0.0000000  )
         3           Al  tau(   3) = (  -0.1249997   0.3608472   0.0000000  )
         4           Al  tau(   4) = (   0.0000018   0.2886775   0.0000000  )
         5           Al  tau(   5) = (  -0.2499994   0.5773550   0.0000000  )
         6           Al  tau(   6) = (  -0.1249979   0.5051854   0.0000000  )
         7           Al  tau(   7) = (  -0.3749991   0.7938629   0.0000000  )
         8           Al  tau(   8) = (  -0.2499976   0.7216932   0.0000000  )
         9           Al  tau(   9) = (   0.2500011   0.1443403   0.0000000  )
        10           Al  tau(  10) = (   0.3750027   0.0721706   0.0000000  )
        11           Al  tau(  11) = (   0.1250014   0.3608482   0.0000000  )
        12           Al  tau(  12) = (   0.2500030   0.2886785   0.0000000  )
        13           Al  tau(  13) = (   0.0000017   0.5773560   0.0000000  )
        14           Al  tau(  14) = (  -0.1249980   0.7938639   0.0000000  )
        15           Al  tau(  15) = (   0.0000036   0.7216942   0.0000000  )
        16           Al  tau(  16) = (   0.5000023   0.1443413   0.0000000  )
        17           Al  tau(  17) = (   0.6250038   0.0721717   0.0000000  )
        18           Al  tau(  18) = (   0.3750026   0.3608492   0.0000000  )
        19           Al  tau(  19) = (   0.5000041   0.2886795   0.0000000  )
        20           Al  tau(  20) = (   0.2500029   0.5773571   0.0000000  )
        21           Al  tau(  21) = (   0.3750044   0.5051874   0.0000000  )
        22           Al  tau(  22) = (   0.1250032   0.7938649   0.0000000  )
        23           Al  tau(  23) = (   0.2500047   0.7216953   0.0000000  )
        24           Al  tau(  24) = (   0.7500035   0.1443423   0.0000000  )
        25           Al  tau(  25) = (   0.8750050   0.0721727   0.0000000  )
        26           Al  tau(  26) = (   0.6250038   0.3608502   0.0000000  )
        27           Al  tau(  27) = (   0.7500053   0.2886805   0.0000000  )
        28           Al  tau(  28) = (   0.5000041   0.5773581   0.0000000  )
        29           Al  tau(  29) = (   0.6250056   0.5051884   0.0000000  )
        30           Al  tau(  30) = (   0.3750044   0.7938660   0.0000000  )
        31           Al  tau(  31) = (   0.5000059   0.7216963   0.0000000  )

     number of k points=     1  Methfessel-Paxton smearing, width (Ry)=  0.0500
                       cart. coord. in units 2pi/alat
        k(    1) = (   0.0000000   0.0000000   0.0000000), wk =   2.0000000

     Initial potential from superposition of free atoms

     starting charge   92.92414, renormalised to   93.00000

     negative rho (up, down):  9.278E-05 0.000E+00
     Starting wfcs are  124 randomized atomic wfcs

     Self-consistent Calculation

     iteration #  1     ecut=    80.00 Ry     beta= 0.40
     Davidson diagonalization with overlap
     ethr =  1.00E-02,  avg # of iterations =  2.0

     total energy              =    -140.64214987 Ry
     Harris-Foulkes estimate   =    -141.23601578 Ry
     estimated scf accuracy    <       1.54870967 Ry

[...]

     End of self-consistent calculation

          k = 0.0000 0.0000 0.0000 (448403 PWs)   bands (ev):

    -9.9529  -9.4482  -9.4332  -9.4329  -9.4259  -9.4258  -9.1459  -8.4049
    -8.4049  -8.3882  -8.3880  -8.3797  -8.3035  -8.2569  -8.2568  -7.5866
    -6.9325  -6.9324  -6.8231  -6.4866  -6.4773  -6.4772  -6.3702  -6.3700
    -5.4641  -4.8435  -4.8433  -4.8369  -4.7358  -4.7356  -4.4781  -4.4682
    -4.4428  -4.4427  -4.1225  -4.1224  -3.9779  -3.4711  -3.4689  -3.4686
    -3.4578  -3.4576  -3.4016  -3.2745  -3.2744  -3.2224  -3.2074  -2.9744
    -2.9653  -2.9653  -2.9389  -2.5198  -2.5197  -2.4502  -2.4487  -2.4314

     the Fermi energy is    -3.0911 ev

!    total energy              =    -140.93610830 Ry
     Harris-Foulkes estimate   =    -140.93610913 Ry
     estimated scf accuracy    <       0.00000090 Ry

     The total energy is the sum of the following terms:

     one-electron contribution =    -502.03616773 Ry
     hartree contribution      =     259.76305512 Ry
     xc contribution           =     -61.33572269 Ry
     ewald contribution        =     162.75374192 Ry
     smearing contrib. (-TS)   =      -0.08101492 Ry

     convergence has been achieved in  17 iterations

     Forces acting on atoms (cartesian axes, Ry/au):

     atom    1 type  1   force =    -0.00152629    0.00522581    0.00000000
     atom    2 type  1   force =    -0.00002844   -0.00212400    0.00000000
     atom    3 type  1   force =     0.00111854    0.00069081    0.00000000
     atom    4 type  1   force =    -0.00319923   -0.00114055    0.00000000
     atom    5 type  1   force =     0.00371053   -0.00391849    0.00000000
     atom    6 type  1   force =    -0.00253554   -0.00223306    0.00000000
     atom    7 type  1   force =     0.00002203   -0.00002364    0.00000000
     atom    8 type  1   force =    -0.00184408    0.00106795    0.00000000
     atom    9 type  1   force =     0.00159882    0.00518195    0.00000000
     atom   10 type  1   force =    -0.00201105   -0.00112913    0.00000000
     atom   11 type  1   force =     0.00004172    0.01516014    0.00000000
     atom   12 type  1   force =     0.00317476   -0.00107261    0.00000000
     atom   13 type  1   force =     0.01312788   -0.00757793    0.00000000
     atom   14 type  1   force =     0.00524719   -0.00126633    0.00000000
     atom   15 type  1   force =     0.00065787    0.00330193    0.00000000
     atom   16 type  1   force =    -0.00047392   -0.00021764    0.00000000
     atom   17 type  1   force =     0.00004909    0.00132455    0.00000000
     atom   18 type  1   force =    -0.00114990    0.00068926    0.00000000
     atom   19 type  1   force =     0.00118398   -0.00067056    0.00000000
     atom   20 type  1   force =    -0.01308783   -0.00760203    0.00000000
     atom   21 type  1   force =     0.00251059   -0.00220674    0.00000000
     atom   22 type  1   force =    -0.00001892   -0.00133284    0.00000000
     atom   23 type  1   force =    -0.00060370    0.00331775    0.00000000
     atom   24 type  1   force =     0.00043349   -0.00024514    0.00000000
     atom   25 type  1   force =     0.00196586   -0.00112982    0.00000000
     atom   26 type  1   force =    -0.00004586    0.00050792    0.00000000
     atom   27 type  1   force =    -0.00112608   -0.00068800    0.00000000
     atom   28 type  1   force =    -0.00371020   -0.00397870    0.00000000
     atom   29 type  1   force =    -0.00001753    0.00230714    0.00000000
     atom   30 type  1   force =    -0.00528952   -0.00130956    0.00000000
     atom   31 type  1   force =     0.00182575    0.00109156    0.00000000

     Total force =     0.031211     Total SCF correction =     0.000766

     Computing stress (Cartesian axis) and pressure

          total   stress  (Ry/bohr**3)                   (kbar)     P=   -0.57
  -0.00000578  -0.00000002   0.00000000         -0.85     -0.00      0.00
  -0.00000002  -0.00000579   0.00000000         -0.00     -0.85      0.00
   0.00000000   0.00000000   0.00000000          0.00      0.00      0.00

     BFGS Geometry Optimization

     number of scf cycles    =   1
     number of bfgs steps    =   0

     enthalpy new            =    -140.9361082973 Ry

     new trust radius        =       0.0151601978 bohr
     new conv_thr            =       0.0000010000 Ry

     new unit-cell volume =  37119.57536 a.u.^3 (  5500.55349 Ang^3 )
     density =      0.28059 g/cm^3

CELL_PARAMETERS (alat= 33.68096681)
   0.999855476  -0.000000464   0.000000000
  -0.499928140   0.865900366   0.000000000
   0.000000000   0.000000000   1.122132950

ATOMIC_POSITIONS (angstrom)
Al      -0.000809344   2.574980727   0.000000000
Al       2.227589105   1.284982521   0.000000000
Al      -2.226984406   6.430887207   0.000000000
Al      -0.001663008   5.143808821   0.000000000
Al      -4.453187429  10.286754378   0.000000000
Al      -2.228886293   9.001536725   0.000000000
Al      -6.682713463  14.147121100   0.000000000
Al      -4.456094894  12.861589246   0.000000000
Al       4.456020976   2.574973644   0.000000000
Al       6.681716927   1.285525038   0.000000000
Al       2.227622664   6.438559066   0.000000000
Al       4.456886299   5.143860891   0.000000000
Al       0.006972121  10.284834289   0.000000000
Al      -2.224772008  14.146479715   0.000000000
Al       0.000405711  12.862787372   0.000000000
Al       8.910101111   2.572132844   0.000000000
Al      11.137983770   1.286839404   0.000000000
Al       6.682169004   6.430918638   0.000000000
[...]
     new conv_thr            =       0.0000009626 Ry

[...]

     Writing output data file 14al_planar_2x2_vcr.save/
     NEW-OLD atomic charge density approx. for the potential

[...]

     Writing output data file 14al_planar_2x2_vcr.save/
     NEW-OLD atomic charge density approx. for the potential
     Check: negative starting charge=   -0.000121

[...]

     Writing output data file 14al_planar_2x2_vcr.save/
     Check: negative starting charge=   -0.000121
     NEW-OLD atomic charge density approx. for the potential
     Check: negative starting charge=   -0.000133

[...]

     iteration #  1     ecut=    80.00 Ry     beta= 0.40
     Davidson diagonalization with overlap
     c_bands:  1 eigenvalues not converged
     ethr =  1.00E-06,  avg # of iterations = 20.0

[...]

     CASE: enthalpy_new > enthalpy_old

[...]

     Threshold (ethr) on eigenvalues was too large:
     Diagonalizing with lowered threshold

     Davidson diagonalization with overlap
     ethr =  7.79E-08,  avg # of iterations =  7.0

[...]

     WARNING: bfgs curvature condition failed, Theta= 0.355
     new trust radius        =       0.1040814074 bohr
     new conv_thr            =       0.0000010000 Ry

[...]

     Total force =     0.000616     Total SCF correction =     0.000071
     SCF correction compared to forces is large: reduce conv_thr to get better values

[...]

     Total force =     0.000543     Total SCF correction =     0.000042

[...]

     Writing output data file 14al_planar_2x2_vcr.save/
     Check: negative starting charge=   -0.000132
     NEW-OLD atomic charge density approx. for the potential
     Check: negative starting charge=   -0.000132
     extrapolated charge   92.99976, renormalised to   93.00000

[...]

     Writing output data file 14al_planar_2x2_vcr.save/
     Check: negative starting charge=   -0.000132
     NEW-OLD atomic charge density approx. for the potential
     Check: negative starting charge=   -0.000132

     negative rho (up, down):  1.516E-08 0.000E+00
     extrapolated charge   93.00001, renormalised to   93.00000

[...]

     small trust_radius: resetting bfgs history

[...]

     number of scf cycles    = 247
     number of bfgs steps    = 245

     enthalpy old            =    -142.0762610778 Ry
     enthalpy new            =    -142.0762610821 Ry

     CASE: enthalpy_new < enthalpy_old

     Message from routine bfgs:
     history already reset at previous step: stopping
     small trust_radius: resetting bfgs history

     new trust radius        =       0.0000170348 bohr
     new conv_thr            =       0.0000000100 Ry

     new unit-cell volume =  26861.09442 a.u.^3 (  3980.40347 Ang^3 )
     density =      0.38774 g/cm^3

[...]

ATOMIC_POSITIONS (angstrom)
Al      -0.347762505   3.289093399   0.000000000
Al       1.863392775   2.124856923   0.000000000
Al      -2.597387575   4.398363386   0.000000000
Al      -0.314573749   5.968743350   0.000000000
Al      -5.281226621   7.703636000   0.000000000
Al      -2.686073080   7.118235512   0.000000000
Al      -5.948703188  12.670237935   0.000000000
Al      -2.650336924   9.838771288   0.000000000
Al       4.195458145   3.489971267   0.000000000
Al       3.950205265   0.789418153   0.000000000
Al       1.990545531   4.799159528   0.000000000
Al       4.817092290   6.113212915   0.000000000
Al      -0.159315218   8.577613249   0.000000000
Al      -2.028818745  12.461993831   0.000000000
Al       0.176209269  11.152957964   0.000000000
Al       6.134508268   1.851111158   0.000000000
Al       8.221347085   0.515812417   0.000000000
Al       7.579918542   5.736422735   0.000000000
Al       8.115253780   3.281981972   0.000000000
Al       2.326201674   7.374483065   0.000000000
Al       4.853035197   8.833915204   0.000000000
Al       2.514457624  12.663105642   0.000000000
Al       2.481437129   9.983417973   0.000000000
Al      12.629929489   1.132061219   0.000000000
Al      14.896209752   0.094851077   0.000000000
Al      10.169016374   4.842967497   0.000000000
Al      10.363565852   2.169089741   0.000000000
Al       7.448254689   8.248628797   0.000000000
Al       9.761976855   9.839054052   0.000000000
Al       4.764035810  11.553855424   0.000000000
Al       7.172749640  10.732449543   0.000000000

     Writing output data file 14al_planar_2x2_vcr.save/
     Check: negative starting charge=   -0.000132
     NEW-OLD atomic charge density approx. for the potential
     Check: negative starting charge=   -0.000132
     extrapolated charge   93.00004, renormalised to   93.00000

[...]

     Threshold (ethr) on eigenvalues was too large:
     Diagonalizing with lowered threshold

     Davidson diagonalization with overlap
     ethr =  1.32E-10,  avg # of iterations =  5.0

[...]

     bfgs converged in 248 scf cycles and 246 bfgs steps
     (criteria: energy <  1.0E-05 Ry, force <  1.0E-04Ry/Bohr, cell <  5.0E-05kbar)

     End of BFGS Geometry Optimization

     Final enthalpy =    -142.0762610809 Ry
Begin final coordinates
     new unit-cell volume =  26861.09442 a.u.^3 (  3980.40347 Ang^3 )
     density =      0.38774 g/cm^3

CELL_PARAMETERS (alat= 33.68096681)
   0.851425775  -0.021140737   0.000000000
  -0.444254923   0.746863232   0.000000000
   0.000000000   0.000000000   1.122132950

ATOMIC_POSITIONS (angstrom)
Al      -0.347762505   3.289093399   0.000000000
Al       1.863392775   2.124856923   0.000000000
Al      -2.597387575   4.398363386   0.000000000
Al      -0.314573749   5.968743350   0.000000000
Al      -5.281226621   7.703636000   0.000000000
Al      -2.686073080   7.118235512   0.000000000
Al      -5.948703188  12.670237935   0.000000000
Al      -2.650336924   9.838771288   0.000000000
Al       4.195458145   3.489971267   0.000000000
Al       3.950205265   0.789418153   0.000000000
Al       1.990545531   4.799159528   0.000000000
Al       4.817092290   6.113212915   0.000000000
Al      -0.159315218   8.577613249   0.000000000
Al      -2.028818745  12.461993831   0.000000000
Al       0.176209269  11.152957964   0.000000000
Al       6.134508268   1.851111158   0.000000000
Al       8.221347085   0.515812417   0.000000000
Al       7.579918542   5.736422735   0.000000000
Al       8.115253780   3.281981972   0.000000000
Al       2.326201674   7.374483065   0.000000000
Al       4.853035197   8.833915204   0.000000000
Al       2.514457624  12.663105642   0.000000000
Al       2.481437129   9.983417973   0.000000000
Al      12.629929489   1.132061219   0.000000000
Al      14.896209752   0.094851077   0.000000000
Al      10.169016374   4.842967497   0.000000000
Al      10.363565852   2.169089741   0.000000000
Al       7.448254689   8.248628797   0.000000000
Al       9.761976855   9.839054052   0.000000000
Al       4.764035810  11.553855424   0.000000000
Al       7.172749640  10.732449543   0.000000000
End final coordinates

     Writing output data file 14al_planar_2x2_vcr.save/

     A final scf calculation at the relaxed structure.
     The G-vectors are recalculated for the final unit cell
     Results may differ from those at the preceding step.

     bravais-lattice index     =            4
     lattice parameter (alat)  =      33.6810  a.u.
     unit-cell volume          =   26861.0944 (a.u.)^3
     number of atoms/cell      =           31
     number of atomic types    =            1
     number of electrons       =        93.00
     number of Kohn-Sham states=           56
     kinetic-energy cutoff     =      80.0000  Ry
     charge density cutoff     =     320.0000  Ry
     convergence threshold     =      1.0E-08
     mixing beta               =       0.4000
     number of iterations used =            8  plain     mixing
     Exchange-correlation      = PBE ( 1  4  3  4 0 0)

     celldm(1)=  33.680967  celldm(2)=   0.000000  celldm(3)=   1.122133
     celldm(4)=   0.000000  celldm(5)=   0.000000  celldm(6)=   0.000000

     crystal axes: (cart. coord. in units of alat)
               a(1) = (   0.851426  -0.021141   0.000000 )
               a(2) = (  -0.444255   0.746863   0.000000 )
               a(3) = (   0.000000   0.000000   1.122133 )

     reciprocal axes: (cart. coord. in units 2 pi/alat)
               b(1) = (  1.192107  0.709098  0.000000 )
               b(2) = (  0.033744  1.359005  0.000000 )
               b(3) = (  0.000000  0.000000  0.891160 )

     PseudoPot. # 1 for Al read from file:
     ./Al.upf
     MD5 check sum: 4974d48a734c9d7d1eb6780a1419d19d
     Pseudo is Norm-conserving + core correction, Zval =  3.0
     Generated using ONCVPSP code by D. R. Hamann
     Using radial grid of 1876 points,  6 beta functions with:
                l(1) =   0
                l(2) =   0
                l(3) =   1
                l(4) =   1
                l(5) =   2
                l(6) =   2

     atomic species   valence    mass     pseudopotential
        Al             3.00    29.98200     Al( 1.00)

      2 Sym. Ops. (no inversion) found

   Cartesian axes

     site n.     atom                  positions (alat units)
         1           Al  tau(   1) = (  -0.0195118   0.1845400   0.0000000  )
         2           Al  tau(   2) = (   0.1045487   0.1192186   0.0000000  )
         3           Al  tau(   3) = (  -0.1457307   0.2467774   0.0000000  )
         4           Al  tau(   4) = (  -0.0176497   0.3348862   0.0000000  )
         5           Al  tau(   5) = (  -0.2963119   0.4322252   0.0000000  )
         6           Al  tau(   6) = (  -0.1507066   0.3993803   0.0000000  )
         7           Al  tau(   7) = (  -0.3337618   0.7108846   0.0000000  )
         8           Al  tau(   8) = (  -0.1487015   0.5520205   0.0000000  )
         9           Al  tau(   9) = (   0.2353931   0.1958106   0.0000000  )
        10           Al  tau(  10) = (   0.2216328   0.0442916   0.0000000  )
        11           Al  tau(  11) = (   0.1116828   0.2692648   0.0000000  )
        12           Al  tau(  12) = (   0.2702709   0.3429919   0.0000000  )
        13           Al  tau(  13) = (  -0.0089386   0.4812611   0.0000000  )
        14           Al  tau(  14) = (  -0.1138302   0.6992007   0.0000000  )
        15           Al  tau(  15) = (   0.0098865   0.6257551   0.0000000  )
        16           Al  tau(  16) = (   0.3441867   0.1038596   0.0000000  )
        17           Al  tau(  17) = (   0.4612722   0.0289405   0.0000000  )
        18           Al  tau(  18) = (   0.4252838   0.3218514   0.0000000  )
        19           Al  tau(  19) = (   0.4553197   0.1841410   0.0000000  )
        20           Al  tau(  20) = (   0.1305154   0.4137575   0.0000000  )
        21           Al  tau(  21) = (   0.2722875   0.4956414   0.0000000  )
        22           Al  tau(  22) = (   0.1410778   0.7104844   0.0000000  )
        23           Al  tau(  23) = (   0.1392251   0.5601361   0.0000000  )
        24           Al  tau(  24) = (   0.7086230   0.0635162   0.0000000  )
        25           Al  tau(  25) = (   0.8357764   0.0053218   0.0000000  )
        26           Al  tau(  26) = (   0.5705494   0.2717227   0.0000000  )
        27           Al  tau(  27) = (   0.5814649   0.1217004   0.0000000  )
        28           Al  tau(  28) = (   0.4178966   0.4628029   0.0000000  )
        29           Al  tau(  29) = (   0.5477118   0.5520363   0.0000000  )
        30           Al  tau(  30) = (   0.2672941   0.6482481   0.0000000  )
        31           Al  tau(  31) = (   0.4024389   0.6021618   0.0000000  )

     number of k points=     1  Methfessel-Paxton smearing, width (Ry)=  0.0500
                       cart. coord. in units 2pi/alat
        k(    1) = (   0.0000000   0.0000000   0.0000000), wk =   2.0000000

     Initial potential from superposition of free atoms

     starting charge   92.92414, renormalised to   93.00000

     negative rho (up, down):  7.285E-05 0.000E+00
     Starting wfcs are  124 randomized atomic wfcs

     Self-consistent Calculation

     iteration #  1     ecut=    80.00 Ry     beta= 0.40
     Davidson diagonalization with overlap
     c_bands:  3 eigenvalues not converged
     ethr =  1.00E-06,  avg # of iterations = 20.0

[...]

     negative rho (up, down):  1.400E-08 0.000E+00

[...]

     total energy              =    -142.07600052 Ry
     Harris-Foulkes estimate   =    -142.07600054 Ry
     estimated scf accuracy    <       0.00000003 Ry

     iteration # 17     ecut=    80.00 Ry     beta= 0.40
     Davidson diagonalization with overlap
     ethr =  3.48E-11,  avg # of iterations =  3.0

     End of self-consistent calculation

          k = 0.0000 0.0000 0.0000 (324513 PWs)   bands (ev):

   -11.5959 -10.9754 -10.8660 -10.7531 -10.6934 -10.5869 -10.1831  -9.2669
    -9.2359  -9.1643  -8.9079  -8.7141  -8.7053  -8.3331  -8.1919  -8.1543
    -8.0864  -7.9058  -7.7282  -6.2426  -6.2044  -6.1200  -6.0617  -5.8996
    -5.7351  -5.6665  -5.4649  -5.3223  -5.3007  -5.1904  -5.1584  -4.8528
    -4.4747  -4.4745  -4.1971  -4.1910  -4.1172  -4.0526  -4.0162  -3.9621
    -3.9536  -3.7343  -3.6933  -3.6682  -2.5566  -2.5446  -2.4641  -2.2952
    -2.1824  -2.1528  -1.9201  -1.8508  -1.7319  -1.7223  -1.6610  -1.5614

     the Fermi energy is    -2.4324 ev

!    total energy              =    -142.07600049 Ry
     Harris-Foulkes estimate   =    -142.07600051 Ry
     estimated scf accuracy    <          4.7E-09 Ry

     The total energy is the sum of the following terms:

     one-electron contribution =    -684.10688688 Ry
     hartree contribution      =     350.79877229 Ry
     xc contribution           =     -63.66169818 Ry
     ewald contribution        =     254.92371243 Ry
     smearing contrib. (-TS)   =      -0.02990014 Ry

     convergence has been achieved in  17 iterations

     Forces acting on atoms (cartesian axes, Ry/au):

     atom    1 type  1   force =    -0.00000781   -0.00000015    0.00000000
     atom    2 type  1   force =    -0.00000283   -0.00000876    0.00000000
     atom    3 type  1   force =     0.00000568    0.00000710    0.00000000
     atom    4 type  1   force =    -0.00000664   -0.00000428    0.00000000
     atom    5 type  1   force =     0.00000509   -0.00000241    0.00000000
     atom    6 type  1   force =    -0.00001599   -0.00000168    0.00000000
     atom    7 type  1   force =     0.00000325    0.00000864    0.00000000
     atom    8 type  1   force =     0.00000420    0.00000394    0.00000000
     atom    9 type  1   force =     0.00000363    0.00000862    0.00000000
     atom   10 type  1   force =    -0.00000442    0.00000266    0.00000000
     atom   11 type  1   force =    -0.00000150   -0.00000152    0.00000000
     atom   12 type  1   force =    -0.00000776    0.00000540    0.00000000
     atom   13 type  1   force =     0.00000603    0.00000434    0.00000000
     atom   14 type  1   force =     0.00000850    0.00000315    0.00000000
     atom   15 type  1   force =     0.00001108   -0.00000358    0.00000000
     atom   16 type  1   force =     0.00000097   -0.00000071    0.00000000
     atom   17 type  1   force =    -0.00000199   -0.00000962    0.00000000
     atom   18 type  1   force =    -0.00000291    0.00000016    0.00000000
     atom   19 type  1   force =     0.00000080   -0.00000192    0.00000000
     atom   20 type  1   force =    -0.00000293    0.00001082    0.00000000
     atom   21 type  1   force =     0.00000156   -0.00000739    0.00000000
     atom   22 type  1   force =     0.00000214    0.00000351    0.00000000
     atom   23 type  1   force =    -0.00000454   -0.00000365    0.00000000
     atom   24 type  1   force =    -0.00000143   -0.00000557    0.00000000
     atom   25 type  1   force =     0.00000207   -0.00000116    0.00000000
     atom   26 type  1   force =    -0.00000411   -0.00000939    0.00000000
     atom   27 type  1   force =     0.00000224    0.00000176    0.00000000
     atom   28 type  1   force =    -0.00000646    0.00000663    0.00000000
     atom   29 type  1   force =     0.00000159    0.00000589    0.00000000
     atom   30 type  1   force =     0.00000790   -0.00001075    0.00000000
     atom   31 type  1   force =     0.00000457   -0.00000009    0.00000000

     Total force =     0.000045     Total SCF correction =     0.000063
     SCF correction compared to forces is large: reduce conv_thr to get better values

     Computing stress (Cartesian axis) and pressure

          total   stress  (Ry/bohr**3)                   (kbar)     P=    0.00
   0.00000003  -0.00000000   0.00000000          0.00     -0.00      0.00
  -0.00000000   0.00000005   0.00000000         -0.00      0.01      0.00
   0.00000000   0.00000000  -0.00000001          0.00      0.00     -0.00

     Writing output data file 14al_planar_2x2_vcr.save/

     General routines

     Parallel routines

   This run was terminated on:   3:27: 4  27Nov2020

   JOB DONE.