     Program PWSCF v.6.3MaX starts on 25Nov2020 at 18:10:27

     R & G space division:  proc/nbgrp/npool/nimage =       8
     Waiting for input...
     Reading input from standard input

     Current dimensions of program PWSCF are:
     Max number of different atomic species (ntypx) = 10
     Max number of k-points (npk) =  40000
     Max angular momentum in pseudopotentials (lmaxx) =  3

     Subspace diagonalization in iterative solution of the eigenvalue problem:
     a serial algorithm will be used

     bravais-lattice index     =            4
     lattice parameter (alat)  =      33.6810  a.u.
     unit-cell volume          =   37130.3117 (a.u.)^3
     number of atoms/cell      =           31
     number of atomic types    =            1
     number of electrons       =        93.00
     number of Kohn-Sham states=           56
     kinetic-energy cutoff     =      80.0000  Ry
     charge density cutoff     =     320.0000  Ry
     convergence threshold     =      1.0E-06
     mixing beta               =       0.4000
     number of iterations used =            8  plain     mixing
     Exchange-correlation      = PBE ( 1  4  3  4 0 0)
     nstep                     =          300

     celldm(1)=  33.680967  celldm(2)=   0.000000  celldm(3)=   1.122133
     celldm(4)=   0.000000  celldm(5)=   0.000000  celldm(6)=   0.000000

     crystal axes: (cart. coord. in units of alat)
               a(1) = (   1.000000   0.000000   0.000000 )
               a(2) = (  -0.500000   0.866025   0.000000 )
               a(3) = (   0.000000   0.000000   1.122133 )

     reciprocal axes: (cart. coord. in units 2 pi/alat)
               b(1) = (  1.000000  0.577350  0.000000 )
               b(2) = (  0.000000  1.154701  0.000000 )
               b(3) = (  0.000000  0.000000  0.891160 )

     PseudoPot. # 1 for Al read from file:
     ./Al.upf
     MD5 check sum: 4974d48a734c9d7d1eb6780a1419d19d
     Pseudo is Norm-conserving + core correction, Zval =  3.0
     Generated using ONCVPSP code by D. R. Hamann
     Using radial grid of 1876 points,  6 beta functions with:
                l(1) =   0
                l(2) =   0
                l(3) =   1
                l(4) =   1
                l(5) =   2
                l(6) =   2

     atomic species   valence    mass     pseudopotential
        Al             3.00    29.98200     Al( 1.00)

      4 Sym. Ops. (no inversion) found ( 2 have fractional translation)

   Cartesian axes

     site n.     atom                  positions (alat units)
         1           Al  tau(   1) = (   0.1250015   0.0721696   0.0000000  )
         2           Al  tau(   2) = (  -0.1249997   0.3608472   0.0000000  )
         3           Al  tau(   3) = (   0.0000018   0.2886775   0.0000000  )
         4           Al  tau(   4) = (  -0.2499994   0.5773550   0.0000000  )
         5           Al  tau(   5) = (  -0.1249979   0.5051854   0.0000000  )
         6           Al  tau(   6) = (  -0.3749991   0.7938629   0.0000000  )
         7           Al  tau(   7) = (  -0.2499976   0.7216932   0.0000000  )
         8           Al  tau(   8) = (   0.2500011   0.1443403   0.0000000  )
         9           Al  tau(   9) = (   0.3750027   0.0721706   0.0000000  )
        10           Al  tau(  10) = (   0.1250014   0.3608482   0.0000000  )
        11           Al  tau(  11) = (   0.2500030   0.2886785   0.0000000  )
        12           Al  tau(  12) = (   0.0000017   0.5773560   0.0000000  )
        13           Al  tau(  13) = (   0.1250033   0.5051864   0.0000000  )
        14           Al  tau(  14) = (  -0.1249980   0.7938639   0.0000000  )
        15           Al  tau(  15) = (   0.0000036   0.7216942   0.0000000  )
        16           Al  tau(  16) = (   0.5000023   0.1443413   0.0000000  )
        17           Al  tau(  17) = (   0.6250038   0.0721717   0.0000000  )
        18           Al  tau(  18) = (   0.3750026   0.3608492   0.0000000  )
        19           Al  tau(  19) = (   0.5000041   0.2886795   0.0000000  )
        20           Al  tau(  20) = (   0.2500029   0.5773571   0.0000000  )
        21           Al  tau(  21) = (   0.3750044   0.5051874   0.0000000  )
        22           Al  tau(  22) = (   0.1250032   0.7938649   0.0000000  )
        23           Al  tau(  23) = (   0.2500047   0.7216953   0.0000000  )
        24           Al  tau(  24) = (   0.7500035   0.1443423   0.0000000  )
        25           Al  tau(  25) = (   0.8750050   0.0721727   0.0000000  )
        26           Al  tau(  26) = (   0.6250038   0.3608502   0.0000000  )
        27           Al  tau(  27) = (   0.7500053   0.2886805   0.0000000  )
        28           Al  tau(  28) = (   0.5000041   0.5773581   0.0000000  )
        29           Al  tau(  29) = (   0.6250056   0.5051884   0.0000000  )
        30           Al  tau(  30) = (   0.3750044   0.7938660   0.0000000  )
        31           Al  tau(  31) = (   0.5000059   0.7216963   0.0000000  )

     number of k points=     1  Methfessel-Paxton smearing, width (Ry)=  0.0500
                       cart. coord. in units 2pi/alat
        k(    1) = (   0.0000000   0.0000000   0.0000000), wk =   2.0000000

     Initial potential from superposition of free atoms

     starting charge   92.92414, renormalised to   93.00000

     negative rho (up, down):  9.278E-05 0.000E+00
     Starting wfcs are  124 randomized atomic wfcs

     Self-consistent Calculation

     iteration #  1     ecut=    80.00 Ry     beta= 0.40
     Davidson diagonalization with overlap
     ethr =  1.00E-02,  avg # of iterations =  2.0

     negative rho (up, down):  1.124E-06 0.000E+00

     total energy              =    -140.64225059 Ry
     Harris-Foulkes estimate   =    -141.23594699 Ry
     estimated scf accuracy    <       1.54828377 Ry

[...]

     End of self-consistent calculation

          k = 0.0000 0.0000 0.0000 (448403 PWs)   bands (ev):

    -9.9529  -9.4485  -9.4331  -9.4326  -9.4260  -9.4255  -9.1459  -8.4049
    -8.4047  -8.3882  -8.3881  -8.3796  -8.3032  -8.2571  -8.2569  -7.5864
    -6.9325  -6.9324  -6.8233  -6.4865  -6.4772  -6.4771  -6.3701  -6.3700
    -5.4639  -4.8435  -4.8435  -4.8370  -4.7356  -4.7354  -4.4781  -4.4681
    -4.4428  -4.4428  -4.1224  -4.1222  -3.9779  -3.4714  -3.4688  -3.4685
    -3.4577  -3.4574  -3.4018  -3.2746  -3.2742  -3.2224  -3.2073  -2.9743
    -2.9653  -2.9652  -2.9388  -2.5200  -2.5197  -2.4488  -2.4483  -2.4313

     the Fermi energy is    -3.0910 ev

!    total energy              =    -140.93611683 Ry
     Harris-Foulkes estimate   =    -140.93611699 Ry
     estimated scf accuracy    <       0.00000018 Ry

     The total energy is the sum of the following terms:

     one-electron contribution =    -502.03543340 Ry
     hartree contribution      =     259.76272669 Ry
     xc contribution           =     -61.33572618 Ry
     ewald contribution        =     162.75328960 Ry
     smearing contrib. (-TS)   =      -0.08097354 Ry

     convergence has been achieved in  17 iterations

[...]

     Forces acting on atoms (cartesian axes, Ry/au):

     atom    1 type  1   force =    -0.01309783    0.00758555    0.00000000
     atom    2 type  1   force =    -0.00315512    0.00111119    0.00000000
     atom    3 type  1   force =     0.00000000   -0.01513058    0.00000000
     atom    4 type  1   force =     0.00203942    0.00117844    0.00000000
     atom    5 type  1   force =    -0.00159200   -0.00518567    0.00000000
     atom    6 type  1   force =    -0.00060582   -0.00330281    0.00000000
     atom    7 type  1   force =    -0.00527951    0.00122426    0.00000000
     atom    8 type  1   force =     0.00252945    0.00218436    0.00000000
     atom    9 type  1   force =    -0.00369203    0.00398687    0.00000000
     atom   10 type  1   force =     0.00315512    0.00111119    0.00000000
     atom   11 type  1   force =    -0.00108878   -0.00064256    0.00000000
     atom   12 type  1   force =     0.00000000    0.00216677    0.00000000
     atom   13 type  1   force =     0.00159200   -0.00518567    0.00000000
     atom   14 type  1   force =     0.00186883   -0.00110990    0.00000000
     atom   15 type  1   force =     0.00000000    0.00000664    0.00000000
     atom   16 type  1   force =     0.00000000   -0.00235745    0.00000000
     atom   17 type  1   force =     0.00369203    0.00398687    0.00000000
     atom   18 type  1   force =     0.00108996    0.00063499    0.00000000
     atom   19 type  1   force =     0.00000000   -0.00052358    0.00000000
     atom   20 type  1   force =    -0.00203942    0.00117844    0.00000000
     atom   21 type  1   force =    -0.00044479    0.00025823    0.00000000
     atom   22 type  1   force =    -0.00186883   -0.00110990    0.00000000
     atom   23 type  1   force =     0.00527951    0.00122426    0.00000000
     atom   24 type  1   force =    -0.00252945    0.00218436    0.00000000
     atom   25 type  1   force =     0.01309783    0.00758555    0.00000000
     atom   26 type  1   force =    -0.00108996    0.00063499    0.00000000
     atom   27 type  1   force =     0.00108878   -0.00064256    0.00000000
     atom   28 type  1   force =     0.00000000   -0.00126521    0.00000000
     atom   29 type  1   force =     0.00044479    0.00025823    0.00000000
     atom   30 type  1   force =     0.00060582   -0.00330281    0.00000000
     atom   31 type  1   force =     0.00000000    0.00125748    0.00000000

     Total force =     0.031180     Total SCF correction =     0.000318

     Computing stress (Cartesian axis) and pressure

     negative rho (up, down):  1.382E-04 0.000E+00
          total   stress  (Ry/bohr**3)                   (kbar)     P=   -0.57
  -0.00000579   0.00000000   0.00000000         -0.85      0.00      0.00
   0.00000000  -0.00000578   0.00000000          0.00     -0.85      0.00
   0.00000000  -0.00000000   0.00000000          0.00     -0.00      0.00

     BFGS Geometry Optimization

     number of scf cycles    =   1
     number of bfgs steps    =   0

     enthalpy new            =    -140.9361168251 Ry

     new trust radius        =       0.0151358444 bohr
     new conv_thr            =       0.0000010000 Ry

     new unit-cell volume =  37119.56724 a.u.^3 (  5500.55229 Ang^3 )
     density =      0.28059 g/cm^3

CELL_PARAMETERS (alat= 33.68096681)
   0.999855172   0.000000000   0.000000000
  -0.499927586   0.865900207   0.000000000
   0.000000000   0.000000000   1.122132950

ATOMIC_POSITIONS (angstrom)
Al       2.220674005   1.290120998   0.000000000
Al      -2.229241942   6.431109145   0.000000000
Al       0.000032094   5.136407124   0.000000000
Al      -4.454065487  10.289449973   0.000000000
Al      -2.228382213   8.999974232   0.000000000
Al      -6.683037068  14.145384191   0.000000000
Al      -4.457905258  12.861670980   0.000000000
Al       4.456513216   2.573389903   0.000000000
Al       6.680826086   1.288235127   0.000000000
Al       2.229272278   6.431127339   0.000000000
Al       4.454631491   5.144090938   0.000000000
Al       0.000030923  10.289991096   0.000000000
Al       2.228477910   8.999992425   0.000000000
Al      -2.226552258  14.146562656   0.000000000
Al       0.000063603  12.861044927   0.000000000
[...]
     NEW-OLD atomic charge density approx. for the potential

     negative rho (up, down):  1.382E-04 0.000E+00
     extrapolated charge   92.97310, renormalised to   93.00000

[...]

     Threshold (ethr) on eigenvalues was too large:
     Diagonalizing with lowered threshold

     Davidson diagonalization with overlap
     ethr =  7.54E-08,  avg # of iterations =  5.0

[...]

     enthalpy old            =    -140.9361168251 Ry
     enthalpy new            =    -140.9371184798 Ry

     CASE: enthalpy_new < enthalpy_old

     WARNING: bfgs curvature condition failed, Theta= 0.853
     new trust radius        =       0.0227004800 bohr
     new conv_thr            =       0.0000010000 Ry

[...]

     iteration #  2     ecut=    80.00 Ry     beta= 0.40
     Davidson diagonalization with overlap
     c_bands:  1 eigenvalues not converged
     ethr =  7.90E-07,  avg # of iterations = 20.0

[...]

     Writing output data file 1al_planar_2x2_vcr.save/
     NEW-OLD atomic charge density approx. for the potential

[...]

     Writing output data file 1al_planar_2x2_vcr.save/
     NEW-OLD atomic charge density approx. for the potential
     Check: negative starting charge=   -0.000121

[...]

     Writing output data file 1al_planar_2x2_vcr.save/
     Check: negative starting charge=   -0.000121
     NEW-OLD atomic charge density approx. for the potential
     Check: negative starting charge=   -0.000133

[...]

     WARNING: bfgs curvature condition failed, Theta= 0.584
     uphill step: resetting bfgs history

[...]

     WARNING: bfgs curvature condition failed, Theta= 0.859
     new trust radius        =       0.0156330048 bohr
     new conv_thr            =       0.0000004586 Ry

[...]

     Total force =     0.000518     Total SCF correction =     0.000085
     SCF correction compared to forces is large: reduce conv_thr to get better values

[...]

     Total force =     0.000340     Total SCF correction =     0.000032

[...]

     small trust_radius: resetting bfgs history

[...]

     number of scf cycles    = 183
     number of bfgs steps    = 182

     enthalpy old            =    -141.9736192381 Ry
     enthalpy new            =    -141.9736192387 Ry

     CASE: enthalpy_new < enthalpy_old

     Message from routine bfgs:
     history already reset at previous step: stopping
     small trust_radius: resetting bfgs history

     new trust radius        =       0.0000145146 bohr
     new conv_thr            =       0.0000000100 Ry

     new unit-cell volume =  27360.15712 a.u.^3 (  4054.35694 Ang^3 )
     density =      0.38067 g/cm^3

[...]

ATOMIC_POSITIONS (angstrom)
Al       1.225098335   2.519211670   0.000000000
Al      -2.621260820   4.582120221   0.000000000
Al       0.000027367   5.247588761   0.000000000
Al      -2.452789529   9.690644862   0.000000000
Al      -2.448586987   7.079524225   0.000000000
Al      -6.252355144  13.223581229   0.000000000
Al      -4.858629090  11.002170499   0.000000000
Al       3.570998550   1.418830527   0.000000000
Al       6.175298982   1.666966236   0.000000000
Al       2.621286688   4.582135948   0.000000000
Al       5.016954067   3.919167820   0.000000000
Al       0.000026368   7.988879354   0.000000000
Al       2.448668589   7.079539951   0.000000000
Al      -2.564937014  12.429880746   0.000000000
Al       0.000054235  10.552985256   0.000000000
Al       7.597965290  -0.359729090   0.000000000
Al       9.020660464   1.666981962   0.000000000
Al       6.243098916   6.249928933   0.000000000
Al       7.597993157   3.946802766   0.000000000
Al       2.452842265   9.690676315   0.000000000
Al       4.778555890   8.388936578   0.000000000
Al       2.565016617  12.429896473   0.000000000
Al       4.858737560  11.002201952   0.000000000
Al      11.624932030   1.418861979   0.000000000
Al      13.970861111   2.519258849   0.000000000
Al       8.952858532   6.249944660   0.000000000
Al      10.179032247   3.919199272   0.000000000
Al       7.597992157   8.484013879   0.000000000
Al      10.417457291   8.388952304   0.000000000
Al       6.252434748  13.223628408   0.000000000
Al       7.598020024  11.021641844   0.000000000

     Writing output data file 1al_planar_2x2_vcr.save/
     Check: negative starting charge=   -0.000133
     NEW-OLD atomic charge density approx. for the potential
     Check: negative starting charge=   -0.000133

     negative rho (up, down):  3.087E-05 0.000E+00
     extrapolated charge   92.99997, renormalised to   93.00000

[...]

     Threshold (ethr) on eigenvalues was too large:
     Diagonalizing with lowered threshold

     Davidson diagonalization with overlap
     ethr =  1.40E-10,  avg # of iterations =  5.0

[...]

     bfgs converged in 184 scf cycles and 183 bfgs steps
     (criteria: energy <  1.0E-05 Ry, force <  1.0E-04Ry/Bohr, cell <  5.0E-05kbar)

     End of BFGS Geometry Optimization

     Final enthalpy =    -141.9736192375 Ry
Begin final coordinates
     new unit-cell volume =  27360.15712 a.u.^3 (  4054.35694 Ang^3 )
     density =      0.38067 g/cm^3

CELL_PARAMETERS (alat= 33.68096681)
   0.852588797   0.000000000   0.000000000
  -0.426294399   0.748481381   0.000000000
   0.000000000   0.000000000   1.122132950

ATOMIC_POSITIONS (angstrom)
Al       1.225098335   2.519211670   0.000000000
Al      -2.621260820   4.582120221   0.000000000
Al       0.000027367   5.247588761   0.000000000
Al      -2.452789529   9.690644862   0.000000000
Al      -2.448586987   7.079524225   0.000000000
Al      -6.252355144  13.223581229   0.000000000
Al      -4.858629090  11.002170499   0.000000000
Al       3.570998550   1.418830527   0.000000000
Al       6.175298982   1.666966236   0.000000000
Al       2.621286688   4.582135948   0.000000000
Al       5.016954067   3.919167820   0.000000000
Al       0.000026368   7.988879354   0.000000000
Al       2.448668589   7.079539951   0.000000000
Al      -2.564937014  12.429880746   0.000000000
Al       0.000054235  10.552985256   0.000000000
Al       7.597965290  -0.359729090   0.000000000
Al       9.020660464   1.666981962   0.000000000
Al       6.243098916   6.249928933   0.000000000
Al       7.597993157   3.946802766   0.000000000
Al       2.452842265   9.690676315   0.000000000
Al       4.778555890   8.388936578   0.000000000
Al       2.565016617  12.429896473   0.000000000
Al       4.858737560  11.002201952   0.000000000
Al      11.624932030   1.418861979   0.000000000
Al      13.970861111   2.519258849   0.000000000
Al       8.952858532   6.249944660   0.000000000
Al      10.179032247   3.919199272   0.000000000
Al       7.597992157   8.484013879   0.000000000
Al      10.417457291   8.388952304   0.000000000
Al       6.252434748  13.223628408   0.000000000
Al       7.598020024  11.021641844   0.000000000
End final coordinates

     Writing output data file 1al_planar_2x2_vcr.save/

     A final scf calculation at the relaxed structure.
     The G-vectors are recalculated for the final unit cell
     Results may differ from those at the preceding step.

     bravais-lattice index     =            4
     lattice parameter (alat)  =      33.6810  a.u.
     unit-cell volume          =   27360.1571 (a.u.)^3
     number of atoms/cell      =           31
     number of atomic types    =            1
     number of electrons       =        93.00
     number of Kohn-Sham states=           56
     kinetic-energy cutoff     =      80.0000  Ry
     charge density cutoff     =     320.0000  Ry
     convergence threshold     =      1.0E-08
     mixing beta               =       0.4000
     number of iterations used =            8  plain     mixing
     Exchange-correlation      = PBE ( 1  4  3  4 0 0)

     celldm(1)=  33.680967  celldm(2)=   0.000000  celldm(3)=   1.122133
     celldm(4)=   0.000000  celldm(5)=   0.000000  celldm(6)=   0.000000

     crystal axes: (cart. coord. in units of alat)
               a(1) = (   0.852589   0.000000   0.000000 )
               a(2) = (  -0.426294   0.748481   0.000000 )
               a(3) = (   0.000000   0.000000   1.122133 )

     reciprocal axes: (cart. coord. in units 2 pi/alat)
               b(1) = (  1.172898  0.668019  0.000000 )
               b(2) = ( -0.000000  1.336039  0.000000 )
               b(3) = (  0.000000  0.000000  0.891160 )

     PseudoPot. # 1 for Al read from file:
     ./Al.upf
     MD5 check sum: 4974d48a734c9d7d1eb6780a1419d19d
     Pseudo is Norm-conserving + core correction, Zval =  3.0
     Generated using ONCVPSP code by D. R. Hamann
     Using radial grid of 1876 points,  6 beta functions with:
                l(1) =   0
                l(2) =   0
                l(3) =   1
                l(4) =   1
                l(5) =   2
                l(6) =   2

     atomic species   valence    mass     pseudopotential
        Al             3.00    29.98200     Al( 1.00)

      4 Sym. Ops. (no inversion) found ( 2 have fractional translation)

   Cartesian axes

     site n.     atom                  positions (alat units)
         1           Al  tau(   1) = (   0.0687362   0.1413445   0.0000000  )
         2           Al  tau(   2) = (  -0.1470702   0.2570874   0.0000000  )
         3           Al  tau(   3) = (   0.0000015   0.2944246   0.0000000  )
         4           Al  tau(   4) = (  -0.1376178   0.5437096   0.0000000  )
         5           Al  tau(   5) = (  -0.1373820   0.3972084   0.0000000  )
         6           Al  tau(   6) = (  -0.3507987   0.7419308   0.0000000  )
         7           Al  tau(   7) = (  -0.2726014   0.6172949   0.0000000  )
         8           Al  tau(   8) = (   0.2003568   0.0796058   0.0000000  )
         9           Al  tau(   9) = (   0.3464753   0.0935279   0.0000000  )
        10           Al  tau(  10) = (   0.1470716   0.2570883   0.0000000  )
        11           Al  tau(  11) = (   0.2814845   0.2198914   0.0000000  )
        12           Al  tau(  12) = (   0.0000015   0.4482292   0.0000000  )
        13           Al  tau(  13) = (   0.1373866   0.3972093   0.0000000  )
        14           Al  tau(  14) = (  -0.1439100   0.6973989   0.0000000  )
        15           Al  tau(  15) = (   0.0000030   0.5920926   0.0000000  )
        16           Al  tau(  16) = (   0.4262964  -0.0201832   0.0000000  )
        17           Al  tau(  17) = (   0.5061190   0.0935288   0.0000000  )
        18           Al  tau(  18) = (   0.3502794   0.3506626   0.0000000  )
        19           Al  tau(  19) = (   0.4262979   0.2214419   0.0000000  )
        20           Al  tau(  20) = (   0.1376208   0.5437114   0.0000000  )
        21           Al  tau(  21) = (   0.2681088   0.4706751   0.0000000  )
        22           Al  tau(  22) = (   0.1439145   0.6973998   0.0000000  )
        23           Al  tau(  23) = (   0.2726075   0.6172967   0.0000000  )
        24           Al  tau(  24) = (   0.6522360   0.0796076   0.0000000  )
        25           Al  tau(  25) = (   0.7838582   0.1413472   0.0000000  )
        26           Al  tau(  26) = (   0.5023149   0.3506634   0.0000000  )
        27           Al  tau(  27) = (   0.5711114   0.2198931   0.0000000  )
        28           Al  tau(  28) = (   0.4262979   0.4760096   0.0000000  )
        29           Al  tau(  29) = (   0.5844886   0.4706760   0.0000000  )
        30           Al  tau(  30) = (   0.3508032   0.7419335   0.0000000  )
        31           Al  tau(  31) = (   0.4262994   0.6183874   0.0000000  )

     number of k points=     1  Methfessel-Paxton smearing, width (Ry)=  0.0500
                       cart. coord. in units 2pi/alat
        k(    1) = (   0.0000000   0.0000000   0.0000000), wk =   2.0000000

     Initial potential from superposition of free atoms

     starting charge   92.92414, renormalised to   93.00000

     negative rho (up, down):  7.322E-05 0.000E+00
     Starting wfcs are  124 randomized atomic wfcs

     Self-consistent Calculation

     iteration #  1     ecut=    80.00 Ry     beta= 0.40
     Davidson diagonalization with overlap
     c_bands:  1 eigenvalues not converged
     ethr =  1.00E-06,  avg # of iterations = 20.0

[...]

     total energy              =    -141.97340241 Ry
     Harris-Foulkes estimate   =    -141.97340242 Ry
     estimated scf accuracy    <       0.00000002 Ry

     iteration # 17     ecut=    80.00 Ry     beta= 0.40
     Davidson diagonalization with overlap
     ethr =  2.46E-11,  avg # of iterations =  4.0

[...]

     End of self-consistent calculation

          k = 0.0000 0.0000 0.0000 (330477 PWs)   bands (ev):

   -11.4586 -10.8344 -10.6798 -10.5837 -10.5365 -10.4469 -10.3902  -9.1876
    -9.0475  -8.9940  -8.8825  -8.8725  -8.6676  -8.2541  -8.1418  -8.1407
    -8.1144  -7.9020  -7.6537  -6.0615  -6.0008  -5.9550  -5.9510  -5.9029
    -5.8267  -5.6763  -5.5429  -5.4644  -5.4248  -5.2846  -5.2167  -4.7784
    -4.4731  -4.3408  -4.1367  -4.1324  -4.0305  -3.9588  -3.9368  -3.8757
    -3.8235  -3.7909  -3.7411  -3.7335  -2.5375  -2.4429  -2.3973  -2.3463
    -2.2950  -2.1898  -2.1816  -2.0756  -1.9453  -1.7870  -1.7061  -1.6152

     the Fermi energy is    -2.4736 ev

!    total energy              =    -141.97340238 Ry
     Harris-Foulkes estimate   =    -141.97340239 Ry
     estimated scf accuracy    <          9.7E-09 Ry

     The total energy is the sum of the following terms:

     one-electron contribution =    -670.66278755 Ry
     hartree contribution      =     344.05887149 Ry
     xc contribution           =     -63.39912436 Ry
     ewald contribution        =     248.07937736 Ry
     smearing contrib. (-TS)   =      -0.04973932 Ry

     convergence has been achieved in  17 iterations

     negative rho (up, down):  3.086E-05 0.000E+00

     Forces acting on atoms (cartesian axes, Ry/au):

     atom    1 type  1   force =    -0.00001063   -0.00000114    0.00000000
     atom    2 type  1   force =     0.00000348   -0.00000191    0.00000000
     atom    3 type  1   force =     0.00000000   -0.00000138    0.00000000
     atom    4 type  1   force =    -0.00001066    0.00001587    0.00000000
     atom    5 type  1   force =    -0.00000131   -0.00000907    0.00000000
     atom    6 type  1   force =    -0.00000589    0.00000299    0.00000000
     atom    7 type  1   force =     0.00000835    0.00000367    0.00000000
     atom    8 type  1   force =     0.00000421   -0.00000345    0.00000000
     atom    9 type  1   force =     0.00000589   -0.00000405    0.00000000
     atom   10 type  1   force =    -0.00000348   -0.00000191    0.00000000
     atom   11 type  1   force =    -0.00000990   -0.00000014    0.00000000
     atom   12 type  1   force =    -0.00000000    0.00000350    0.00000000
     atom   13 type  1   force =     0.00000131   -0.00000907    0.00000000
     atom   14 type  1   force =    -0.00000098   -0.00000538    0.00000000
     atom   15 type  1   force =    -0.00000000    0.00000718    0.00000000
     atom   16 type  1   force =     0.00000000   -0.00000625    0.00000000
     atom   17 type  1   force =    -0.00000589   -0.00000405    0.00000000
     atom   18 type  1   force =     0.00000545   -0.00000505    0.00000000
     atom   19 type  1   force =    -0.00000000    0.00000159    0.00000000
     atom   20 type  1   force =     0.00001066    0.00001587    0.00000000
     atom   21 type  1   force =     0.00000604   -0.00000425    0.00000000
     atom   22 type  1   force =     0.00000098   -0.00000538    0.00000000
     atom   23 type  1   force =    -0.00000835    0.00000367    0.00000000
     atom   24 type  1   force =    -0.00000421   -0.00000345    0.00000000
     atom   25 type  1   force =     0.00001063   -0.00000114    0.00000000
     atom   26 type  1   force =    -0.00000545   -0.00000505    0.00000000
     atom   27 type  1   force =     0.00000990   -0.00000014    0.00000000
     atom   28 type  1   force =    -0.00000000    0.00001677    0.00000000
     atom   29 type  1   force =    -0.00000604   -0.00000425    0.00000000
     atom   30 type  1   force =     0.00000589    0.00000299    0.00000000
     atom   31 type  1   force =    -0.00000000    0.00000241    0.00000000

     Total force =     0.000049     Total SCF correction =     0.000099
     SCF correction compared to forces is large: reduce conv_thr to get better values

     Computing stress (Cartesian axis) and pressure

     negative rho (up, down):  3.086E-05 0.000E+00
          total   stress  (Ry/bohr**3)                   (kbar)     P=    0.00
   0.00000003  -0.00000000   0.00000000          0.00     -0.00      0.00
  -0.00000000   0.00000002   0.00000000         -0.00      0.00      0.00
  -0.00000000   0.00000000  -0.00000001         -0.00      0.00     -0.00

     Writing output data file 1al_planar_2x2_vcr.save/

     General routines

     Parallel routines

      19h

   This run was terminated on:  10:29:59  26Nov2020

   JOB DONE.