     Program PWSCF v.6.3MaX starts on 25Nov2020 at 11:14:55

     R & G space division:  proc/nbgrp/npool/nimage =       8
     Waiting for input...
     Reading input from standard input

     Current dimensions of program PWSCF are:
     Max number of different atomic species (ntypx) = 10
     Max number of k-points (npk) =  40000
     Max angular momentum in pseudopotentials (lmaxx) =  3

     Subspace diagonalization in iterative solution of the eigenvalue problem:
     a serial algorithm will be used

     Message from routine find_sym:
     Not a group! Trying with lower acceptance parameter...
     Message from routine find_sym:
     Symmetry operations form a group

     bravais-lattice index     =            4
     lattice parameter (alat)  =      16.8405  a.u.
     unit-cell volume          =    9282.5779 (a.u.)^3
     number of atoms/cell      =            7
     number of atomic types    =            1
     number of electrons       =        21.00
     number of Kohn-Sham states=           15
     kinetic-energy cutoff     =      80.0000  Ry
     charge density cutoff     =     320.0000  Ry
     convergence threshold     =      1.0E-06
     mixing beta               =       0.4000
     number of iterations used =            8  plain     mixing
     Exchange-correlation      = PBE ( 1  4  3  4 0 0)
     nstep                     =          300

     celldm(1)=  16.840483  celldm(2)=   0.000000  celldm(3)=   2.244266
     celldm(4)=   0.000000  celldm(5)=   0.000000  celldm(6)=   0.000000

     crystal axes: (cart. coord. in units of alat)
               a(1) = (   1.000000   0.000000   0.000000 )
               a(2) = (  -0.500000   0.866025   0.000000 )
               a(3) = (   0.000000   0.000000   2.244266 )

     reciprocal axes: (cart. coord. in units 2 pi/alat)
               b(1) = (  1.000000  0.577350  0.000000 )
               b(2) = (  0.000000  1.154701  0.000000 )
               b(3) = (  0.000000  0.000000  0.445580 )

     PseudoPot. # 1 for Al read from file:
     ./Al.upf
     MD5 check sum: 4974d48a734c9d7d1eb6780a1419d19d
     Pseudo is Norm-conserving + core correction, Zval =  3.0
     Generated using ONCVPSP code by D. R. Hamann
     Using radial grid of 1876 points,  6 beta functions with:
                l(1) =   0
                l(2) =   0
                l(3) =   1
                l(4) =   1
                l(5) =   2
                l(6) =   2

     atomic species   valence    mass     pseudopotential
        Al             3.00    29.98200     Al( 1.00)

      2 Sym. Ops. (no inversion) found

   Cartesian axes

     site n.     atom                  positions (alat units)
         1           Al  tau(   1) = (   0.0000001   0.2886786   0.0000000  )
         2           Al  tau(   2) = (   0.2500030   0.1443392   0.0000000  )
         3           Al  tau(   3) = (   0.5000023   0.2886806   0.0000000  )
         4           Al  tau(   4) = (   0.7500053   0.1443413   0.0000000  )
         5           Al  tau(   5) = (  -0.2499995   0.7216943   0.0000000  )
         6           Al  tau(   6) = (   0.2500029   0.7216963   0.0000000  )
         7           Al  tau(   7) = (   0.5000059   0.5773570   0.0000000  )

     number of k points=     1  Methfessel-Paxton smearing, width (Ry)=  0.0500
                       cart. coord. in units 2pi/alat
        k(    1) = (   0.0000000   0.0000000   0.0000000), wk =   2.0000000

     Initial potential from superposition of free atoms

     starting charge   20.98287, renormalised to   21.00000

     negative rho (up, down):  2.280E-05 0.000E+00
     Starting wfcs are   28 randomized atomic wfcs

     Self-consistent Calculation

     iteration #  1     ecut=    80.00 Ry     beta= 0.40
     Davidson diagonalization with overlap
     ethr =  1.00E-02,  avg # of iterations =  2.0

     total energy              =     -31.66578159 Ry
     Harris-Foulkes estimate   =     -31.75219867 Ry
     estimated scf accuracy    <       0.28959027 Ry

[...]

     End of self-consistent calculation

          k = 0.0000 0.0000 0.0000 (111965 PWs)   bands (ev):

    -9.6452  -8.0765  -8.0764  -7.5204  -6.5557  -6.5555  -4.1828  -3.7989
    -3.2627  -2.8077  -2.8074  -2.2401  -2.2401  -1.7271  -0.8758

     the Fermi energy is    -2.6603 ev

!    total energy              =     -31.67664995 Ry
     Harris-Foulkes estimate   =     -31.67665001 Ry
     estimated scf accuracy    <       0.00000010 Ry

     The total energy is the sum of the following terms:

     one-electron contribution =    -103.79253188 Ry
     hartree contribution      =      53.98973416 Ry
     xc contribution           =     -13.76125040 Ry
     ewald contribution        =      31.90178579 Ry
     smearing contrib. (-TS)   =      -0.01438762 Ry

     convergence has been achieved in  11 iterations

     Forces acting on atoms (cartesian axes, Ry/au):

     atom    1 type  1   force =     0.00002426    0.01079420    0.00000000
     atom    2 type  1   force =     0.00238788    0.00139139    0.00000000
     atom    3 type  1   force =     0.00000081    0.00000925    0.00000000
     atom    4 type  1   force =    -0.00240875    0.00138936    0.00000000
     atom    5 type  1   force =     0.00933063   -0.00540234    0.00000000
     atom    6 type  1   force =    -0.00931658   -0.00542696    0.00000000
     atom    7 type  1   force =    -0.00001825   -0.00275489    0.00000000

     Total force =     0.019287     Total SCF correction =     0.000224

     Computing stress (Cartesian axis) and pressure

          total   stress  (Ry/bohr**3)                   (kbar)     P=   -1.45
  -0.00001476   0.00000001   0.00000000         -2.17      0.00      0.00
   0.00000001  -0.00001476   0.00000000          0.00     -2.17      0.00
   0.00000000   0.00000000  -0.00000001          0.00      0.00     -0.00

     BFGS Geometry Optimization

     number of scf cycles    =   1
     number of bfgs steps    =   0

     enthalpy new            =     -31.6766499501 Ry

     new trust radius        =       0.0107942230 bohr
     new conv_thr            =       0.0000010000 Ry

     new unit-cell volume =   9275.72961 a.u.^3 (  1374.52130 Ang^3 )
     density =      0.25355 g/cm^3

CELL_PARAMETERS (alat= 16.84048341)
   0.999630982   0.000000171   0.000000000
  -0.499815343   0.865705861   0.000000000
   0.000000000   0.000000000   2.244265901

ATOMIC_POSITIONS (angstrom)
Al       0.000013860   2.577348835   0.000000000
Al       2.228367961   1.286555348   0.000000000
Al       4.454176799   2.571662746   0.000000000
Al       6.680007150   1.286573222   0.000000000
Al      -2.222136257   6.426220431   0.000000000
Al       2.222176221   6.426226357   0.000000000
Al       4.454199832   5.141820260   0.000000000

     Writing output data file 6al_planar_2x2_vcr.save/
     NEW-OLD atomic charge density approx. for the potential

     negative rho (up, down):  1.032E-07 0.000E+00
     extrapolated charge   20.98451, renormalised to   21.00000

[...]

     negative rho (up, down):  5.120E-08 0.000E+00

[...]

     enthalpy old            =     -31.6766499501 Ry
     enthalpy new            =     -31.6771116494 Ry

     CASE: enthalpy_new < enthalpy_old

     WARNING: bfgs curvature condition failed, Theta= 0.840
     new trust radius        =       0.0161853619 bohr
     new conv_thr            =       0.0000004617 Ry

[...]

     WARNING: bfgs curvature condition failed, Theta= 0.194
     new trust radius        =       0.5457326007 bohr
     new conv_thr            =       0.0000010000 Ry

[...]

     iteration #  1     ecut=    80.00 Ry     beta= 0.40
     Davidson diagonalization with overlap
     c_bands:  1 eigenvalues not converged
     ethr =  1.00E-06,  avg # of iterations = 20.0

[...]

     CASE: enthalpy_new > enthalpy_old

[...]

     CASE: enthalpy_new < enthalpy_old

[...]

     new trust radius        =       0.0000054265 bohr

     trust_radius < trust_radius_min

     resetting bfgs history

     new conv_thr            =       0.0000009305 Ry

[...]

     Threshold (ethr) on eigenvalues was too large:
     Diagonalizing with lowered threshold

     Davidson diagonalization with overlap
     ethr =  1.02E-08,  avg # of iterations =  5.0

[...]

     Threshold (ethr) on eigenvalues was too large:
     Diagonalizing with lowered threshold

     Davidson diagonalization with overlap
     ethr =  1.08E-08,  avg # of iterations =  5.0

[...]

     new trust radius        =       0.0000007542 bohr

     trust_radius < trust_radius_min

     resetting bfgs history

     new conv_thr            =       0.0000009305 Ry

[...]

     Self-consistent Calculation

[...]

     negative rho (up, down):  2.741E-08 0.000E+00

     total energy              =     -31.73515673 Ry
     Harris-Foulkes estimate   =     -31.73515943 Ry
     estimated scf accuracy    <       0.00000693 Ry

     iteration #  5     ecut=    80.00 Ry     beta= 0.40
     Davidson diagonalization with overlap
     ethr =  3.30E-08,  avg # of iterations =  2.0

     End of self-consistent calculation

          k = 0.0000 0.0000 0.0000 (111965 PWs)   bands (ev):

   -10.5895  -8.0239  -8.0136  -7.9320  -7.0737  -6.8558  -6.8456  -4.3257
    -2.1307  -2.0022  -2.0005  -1.8642  -1.8572  -1.7826  -0.9911

     the Fermi energy is    -2.0057 ev

!    total energy              =     -31.73515822 Ry
     Harris-Foulkes estimate   =     -31.73515841 Ry
     estimated scf accuracy    <       0.00000032 Ry

     The total energy is the sum of the following terms:

     one-electron contribution =    -129.49366947 Ry
     hartree contribution      =      66.78472543 Ry
     xc contribution           =     -13.96670142 Ry
     ewald contribution        =      45.01059192 Ry
     smearing contrib. (-TS)   =      -0.07010468 Ry

     convergence has been achieved in   5 iterations

     Forces acting on atoms (cartesian axes, Ry/au):

     atom    1 type  1   force =     0.00024267   -0.00239014    0.00000000
     atom    2 type  1   force =     0.00850950    0.00593023    0.00000000
     atom    3 type  1   force =     0.00004012    0.00009015    0.00000000
     atom    4 type  1   force =    -0.00873640    0.00583297    0.00000000
     atom    5 type  1   force =    -0.00223905    0.00046617    0.00000000
     atom    6 type  1   force =     0.00234922    0.00026392    0.00000000
     atom    7 type  1   force =    -0.00016606   -0.01019330    0.00000000

     Total force =     0.018397     Total SCF correction =     0.000130

     Computing stress (Cartesian axis) and pressure

          total   stress  (Ry/bohr**3)                   (kbar)     P=   -1.51
  -0.00001524  -0.00000031   0.00000000         -2.24     -0.05      0.00
  -0.00000031  -0.00001573   0.00000000         -0.05     -2.31      0.00
   0.00000000   0.00000000   0.00000026          0.00      0.00      0.04

     number of scf cycles    = 300
     number of bfgs steps    =  19

     enthalpy old            =     -31.7354847094 Ry
     enthalpy new            =     -31.7351582177 Ry

     CASE: enthalpy_new > enthalpy_old

     new trust radius        =       0.0025343198 bohr
     new conv_thr            =       0.0000009305 Ry

     new unit-cell volume =   7201.44990 a.u.^3 (  1067.14476 Ang^3 )
     density =      0.32658 g/cm^3

CELL_PARAMETERS (alat= 16.84048341)
   0.881025903  -0.000089562   0.000000000
  -0.440590515   0.762638632   0.000000000
   0.000000000   0.000000000   2.244265901

ATOMIC_POSITIONS (angstrom)
Al      -0.000794443   2.923102168   0.000000000
Al       1.677942541   0.965326325   0.000000000
Al       3.925892698   2.263898419   0.000000000
Al       6.173518186   0.965376438   0.000000000
Al      -1.391785774   5.336997352   0.000000000
Al       1.390102908   5.336957437   0.000000000
Al       3.925677784   4.860132355   0.000000000

     Writing output data file 6al_planar_2x2_vcr.save/
     NEW-OLD atomic charge density approx. for the potential

     negative rho (up, down):  2.867E-07 0.000E+00
     extrapolated charge   21.01259, renormalised to   21.00000

     Writing output data file 6al_planar_2x2_vcr.save/

     General routines

     Parallel routines

      22h

   This run was terminated on:  12:37:34  25Nov2020

   JOB DONE.