     Program PWSCF v.6.3MaX starts on 25Nov2020 at 11:12:51

     R & G space division:  proc/nbgrp/npool/nimage =       8
     Waiting for input...
     Reading input from standard input

     Current dimensions of program PWSCF are:
     Max number of different atomic species (ntypx) = 10
     Max number of k-points (npk) =  40000
     Max angular momentum in pseudopotentials (lmaxx) =  3

     Subspace diagonalization in iterative solution of the eigenvalue problem:
     a serial algorithm will be used

     Message from routine find_sym:
     Not a group! Trying with lower acceptance parameter...
     Message from routine find_sym:
     Symmetry operations form a group

     bravais-lattice index     =            4
     lattice parameter (alat)  =      16.8405  a.u.
     unit-cell volume          =    9282.5779 (a.u.)^3
     number of atoms/cell      =            7
     number of atomic types    =            1
     number of electrons       =        21.00
     number of Kohn-Sham states=           15
     kinetic-energy cutoff     =      80.0000  Ry
     charge density cutoff     =     320.0000  Ry
     convergence threshold     =      1.0E-06
     mixing beta               =       0.4000
     number of iterations used =            8  plain     mixing
     Exchange-correlation      = PBE ( 1  4  3  4 0 0)
     nstep                     =          300

     celldm(1)=  16.840483  celldm(2)=   0.000000  celldm(3)=   2.244266
     celldm(4)=   0.000000  celldm(5)=   0.000000  celldm(6)=   0.000000

     crystal axes: (cart. coord. in units of alat)
               a(1) = (   1.000000   0.000000   0.000000 )
               a(2) = (  -0.500000   0.866025   0.000000 )
               a(3) = (   0.000000   0.000000   2.244266 )

     reciprocal axes: (cart. coord. in units 2 pi/alat)
               b(1) = (  1.000000  0.577350  0.000000 )
               b(2) = (  0.000000  1.154701  0.000000 )
               b(3) = (  0.000000  0.000000  0.445580 )

     PseudoPot. # 1 for Al read from file:
     ./Al.upf
     MD5 check sum: 4974d48a734c9d7d1eb6780a1419d19d
     Pseudo is Norm-conserving + core correction, Zval =  3.0
     Generated using ONCVPSP code by D. R. Hamann
     Using radial grid of 1876 points,  6 beta functions with:
                l(1) =   0
                l(2) =   0
                l(3) =   1
                l(4) =   1
                l(5) =   2
                l(6) =   2

     atomic species   valence    mass     pseudopotential
        Al             3.00    29.98200     Al( 1.00)

      2 Sym. Ops. (no inversion) found

   Cartesian axes

     site n.     atom                  positions (alat units)
         1           Al  tau(   1) = (   0.0000001   0.2886786   0.0000000  )
         2           Al  tau(   2) = (   0.2500030   0.1443392   0.0000000  )
         3           Al  tau(   3) = (   0.7500053   0.1443413   0.0000000  )
         4           Al  tau(   4) = (  -0.2499995   0.7216943   0.0000000  )
         5           Al  tau(   5) = (   0.0000036   0.5773550   0.0000000  )
         6           Al  tau(   6) = (   0.2500029   0.7216963   0.0000000  )
         7           Al  tau(   7) = (   0.5000059   0.5773570   0.0000000  )

     number of k points=     1  Methfessel-Paxton smearing, width (Ry)=  0.0500
                       cart. coord. in units 2pi/alat
        k(    1) = (   0.0000000   0.0000000   0.0000000), wk =   2.0000000

     Initial potential from superposition of free atoms

     starting charge   20.98287, renormalised to   21.00000

     negative rho (up, down):  2.280E-05 0.000E+00
     Starting wfcs are   28 randomized atomic wfcs

     Self-consistent Calculation

     iteration #  1     ecut=    80.00 Ry     beta= 0.40
     Davidson diagonalization with overlap
     ethr =  1.00E-02,  avg # of iterations =  2.0

     total energy              =     -31.66569011 Ry
     Harris-Foulkes estimate   =     -31.75221113 Ry
     estimated scf accuracy    <       0.28974273 Ry

[...]

     End of self-consistent calculation

          k = 0.0000 0.0000 0.0000 (111965 PWs)   bands (ev):

    -9.6459  -8.0774  -8.0773  -7.5208  -6.5561  -6.5560  -4.1826  -3.7995
    -3.2634  -2.8084  -2.8081  -2.2408  -2.2407  -1.7274  -0.8762

     the Fermi energy is    -2.6610 ev

!    total energy              =     -31.67664974 Ry
     Harris-Foulkes estimate   =     -31.67665008 Ry
     estimated scf accuracy    <       0.00000048 Ry

     The total energy is the sum of the following terms:

     one-electron contribution =    -103.79327478 Ry
     hartree contribution      =      53.99063882 Ry
     xc contribution           =     -13.76141550 Ry
     ewald contribution        =      31.90178579 Ry
     smearing contrib. (-TS)   =      -0.01438408 Ry

     convergence has been achieved in  11 iterations

     Forces acting on atoms (cartesian axes, Ry/au):

     atom    1 type  1   force =     0.00001973    0.00273552    0.00000000
     atom    2 type  1   force =     0.00932056    0.00539772    0.00000000
     atom    3 type  1   force =    -0.00933963    0.00535588    0.00000000
     atom    4 type  1   force =     0.00238416   -0.00134239    0.00000000
     atom    5 type  1   force =     0.00001469   -0.00001596    0.00000000
     atom    6 type  1   force =    -0.00234892   -0.00135345    0.00000000
     atom    7 type  1   force =    -0.00005059   -0.01077733    0.00000000

     Total force =     0.019246     Total SCF correction =     0.000505

     Computing stress (Cartesian axis) and pressure

          total   stress  (Ry/bohr**3)                   (kbar)     P=   -1.44
  -0.00001473   0.00000001   0.00000000         -2.17      0.00      0.00
   0.00000001  -0.00001473   0.00000000          0.00     -2.17      0.00
   0.00000000   0.00000000   0.00000004          0.00      0.00      0.01

     BFGS Geometry Optimization

     number of scf cycles    =   1
     number of bfgs steps    =   0

     enthalpy new            =     -31.6766497443 Ry

     new trust radius        =       0.0107774518 bohr
     new conv_thr            =       0.0000010000 Ry

     new unit-cell volume =   9275.74104 a.u.^3 (  1374.52299 Ang^3 )
     density =      0.25355 g/cm^3

CELL_PARAMETERS (alat= 16.84048341)
   0.999631671   0.000000373   0.000000000
  -0.499815512   0.865706229   0.000000000
   0.000000000   0.000000000   2.244265901

ATOMIC_POSITIONS (angstrom)
Al       0.000011984   2.573087339   0.000000000
Al       2.232037020   1.288675771   0.000000000
Al       6.676345699   1.288673490   0.000000000
Al      -2.225811051   6.428371113   0.000000000
Al       0.000041779   5.143252944   0.000000000
Al       2.225864823   6.428385114   0.000000000
Al       4.454186832   5.137580221   0.000000000

     Writing output data file 3al_planar_2x2_vcr.save/
     NEW-OLD atomic charge density approx. for the potential

     negative rho (up, down):  1.026E-07 0.000E+00
     extrapolated charge   20.98453, renormalised to   21.00000

[...]

     negative rho (up, down):  5.098E-08 0.000E+00

[...]

     enthalpy old            =     -31.6766497443 Ry
     enthalpy new            =     -31.6771107399 Ry

     CASE: enthalpy_new < enthalpy_old

     WARNING: bfgs curvature condition failed, Theta= 0.835
     new trust radius        =       0.0161602232 bohr
     new conv_thr            =       0.0000004610 Ry

[...]

     iteration #  1     ecut=    80.00 Ry     beta= 0.40
     Davidson diagonalization with overlap
     c_bands:  1 eigenvalues not converged
     ethr =  1.00E-06,  avg # of iterations = 20.0

[...]

     CASE: enthalpy_new > enthalpy_old

[...]

     WARNING: bfgs curvature condition failed, Theta= 0.904
     new trust radius        =       0.0662254215 bohr
     new conv_thr            =       0.0000010000 Ry

[...]

     Total force =     0.001075     Total SCF correction =     0.000288
     SCF correction compared to forces is large: reduce conv_thr to get better values

[...]

     CASE: enthalpy_new < enthalpy_old

     new trust radius        =       0.0059589263 bohr
     new conv_thr            =       0.0000000100 Ry

[...]

     Threshold (ethr) on eigenvalues was too large:
     Diagonalizing with lowered threshold

     Davidson diagonalization with overlap
     ethr =  9.50E-08,  avg # of iterations =  2.0

[...]

     new trust radius        =       0.0000260343 bohr

     trust_radius < trust_radius_min

     resetting bfgs history

     new conv_thr            =       0.0000000100 Ry

[...]

     negative rho (up, down):  1.202E-07 0.000E+00
     extrapolated charge   20.98934, renormalised to   21.00000

[...]

     number of scf cycles    =  28
     number of bfgs steps    =  25

     enthalpy old            =     -31.7372519457 Ry
     enthalpy new            =     -31.7368667480 Ry

     CASE: enthalpy_new > enthalpy_old

     new trust radius        =       0.0000012534 bohr

     trust_radius < trust_radius_min

     resetting bfgs history

     Message from routine bfgs:
     history already reset at previous step: stopping
     new conv_thr            =       0.0000000100 Ry

     new unit-cell volume =   7109.07377 a.u.^3 (  1053.45603 Ang^3 )
     density =      0.33082 g/cm^3

[...]

ATOMIC_POSITIONS (angstrom)
Al       0.000528365   1.958490907   0.000000000
Al       2.518431179   1.455003812   0.000000000
Al       5.275708134   1.455454462   0.000000000
Al      -2.203238754   5.779122394   0.000000000
Al       0.000189035   4.503615751   0.000000000
Al       2.203069412   5.778376733   0.000000000
Al       3.897613806   3.846164897   0.000000000

     Writing output data file 3al_planar_2x2_vcr.save/
     NEW-OLD atomic charge density approx. for the potential

[...]

     Threshold (ethr) on eigenvalues was too large:
     Diagonalizing with lowered threshold

     Davidson diagonalization with overlap
     ethr =  5.47E-11,  avg # of iterations =  6.0

[...]

          k = 0.0000 0.0000 0.0000 (111965 PWs)   bands (ev):

[...]

     bfgs converged in  29 scf cycles and  25 bfgs steps
     (criteria: energy <  1.0E-05 Ry, force <  1.0E-04Ry/Bohr, cell <  5.0E-05kbar)

     End of BFGS Geometry Optimization

     Final enthalpy =     -31.7368667953 Ry
Begin final coordinates
     new unit-cell volume =   7109.07377 a.u.^3 (  1053.45603 Ang^3 )
     density =      0.33082 g/cm^3

CELL_PARAMETERS (alat= 16.84048341)
   0.874716341  -0.000019347   0.000000000
  -0.437374953   0.758251626   0.000000000
   0.000000000   0.000000000   2.244265901

ATOMIC_POSITIONS (angstrom)
Al       0.000528365   1.958490907   0.000000000
Al       2.518431179   1.455003812   0.000000000
Al       5.275708134   1.455454462   0.000000000
Al      -2.203238754   5.779122394   0.000000000
Al       0.000189035   4.503615751   0.000000000
Al       2.203069412   5.778376733   0.000000000
Al       3.897613806   3.846164897   0.000000000
End final coordinates

     Writing output data file 3al_planar_2x2_vcr.save/

     A final scf calculation at the relaxed structure.
     The G-vectors are recalculated for the final unit cell
     Results may differ from those at the preceding step.

     bravais-lattice index     =            4
     lattice parameter (alat)  =      16.8405  a.u.
     unit-cell volume          =    7109.0738 (a.u.)^3
     number of atoms/cell      =            7
     number of atomic types    =            1
     number of electrons       =        21.00
     number of Kohn-Sham states=           15
     kinetic-energy cutoff     =      80.0000  Ry
     charge density cutoff     =     320.0000  Ry
     convergence threshold     =      1.0E-08
     mixing beta               =       0.4000
     number of iterations used =            8  plain     mixing
     Exchange-correlation      = PBE ( 1  4  3  4 0 0)

     celldm(1)=  16.840483  celldm(2)=   0.000000  celldm(3)=   2.244266
     celldm(4)=   0.000000  celldm(5)=   0.000000  celldm(6)=   0.000000

     crystal axes: (cart. coord. in units of alat)
               a(1) = (   0.874716  -0.000019   0.000000 )
               a(2) = (  -0.437375   0.758252   0.000000 )
               a(3) = (   0.000000   0.000000   2.244266 )

     reciprocal axes: (cart. coord. in units 2 pi/alat)
               b(1) = (  1.143242  0.659445  0.000000 )
               b(2) = (  0.000029  1.318840  0.000000 )
               b(3) = (  0.000000  0.000000  0.445580 )

     PseudoPot. # 1 for Al read from file:
     ./Al.upf
     MD5 check sum: 4974d48a734c9d7d1eb6780a1419d19d
     Pseudo is Norm-conserving + core correction, Zval =  3.0
     Generated using ONCVPSP code by D. R. Hamann
     Using radial grid of 1876 points,  6 beta functions with:
                l(1) =   0
                l(2) =   0
                l(3) =   1
                l(4) =   1
                l(5) =   2
                l(6) =   2

     atomic species   valence    mass     pseudopotential
        Al             3.00    29.98200     Al( 1.00)

      2 Sym. Ops. (no inversion) found

   Cartesian axes

     site n.     atom                  positions (alat units)
         1           Al  tau(   1) = (   0.0000593   0.2197687   0.0000000  )
         2           Al  tau(   2) = (   0.2826015   0.1632708   0.0000000  )
         3           Al  tau(   3) = (   0.5920046   0.1633213   0.0000000  )
         4           Al  tau(   4) = (  -0.2472327   0.6484944   0.0000000  )
         5           Al  tau(   5) = (   0.0000212   0.5053656   0.0000000  )
         6           Al  tau(   6) = (   0.2472137   0.6484107   0.0000000  )
         7           Al  tau(   7) = (   0.4373641   0.4315908   0.0000000  )

     number of k points=     1  Methfessel-Paxton smearing, width (Ry)=  0.0500
                       cart. coord. in units 2pi/alat
        k(    1) = (   0.0000000   0.0000000   0.0000000), wk =   2.0000000

     Initial potential from superposition of free atoms

     starting charge   20.98287, renormalised to   21.00000

     negative rho (up, down):  1.813E-05 0.000E+00
     Starting wfcs are   28 randomized atomic wfcs

     Self-consistent Calculation

     iteration #  1     ecut=    80.00 Ry     beta= 0.40
     Davidson diagonalization with overlap
     c_bands:  1 eigenvalues not converged
     ethr =  1.00E-06,  avg # of iterations = 20.0

[...]

     negative rho (up, down):  1.974E-08 0.000E+00

[...]

     total energy              =     -31.73683320 Ry
     Harris-Foulkes estimate   =     -31.73683321 Ry
     estimated scf accuracy    <       0.00000002 Ry

     iteration # 13     ecut=    80.00 Ry     beta= 0.40
     Davidson diagonalization with overlap
     ethr =  1.09E-10,  avg # of iterations =  4.0

     End of self-consistent calculation

          k = 0.0000 0.0000 0.0000 ( 85839 PWs)   bands (ev):

   -10.6300  -8.0021  -7.9979  -7.9841  -7.0244  -6.8992  -6.8973  -4.3473
    -2.1130  -1.9837  -1.9761  -1.8384  -1.8350  -1.7966  -0.8639

     the Fermi energy is    -1.9905 ev

!    total energy              =     -31.73683319 Ry
     Harris-Foulkes estimate   =     -31.73683319 Ry
     estimated scf accuracy    <          5.8E-10 Ry

     The total energy is the sum of the following terms:

     one-electron contribution =    -131.15919371 Ry
     hartree contribution      =      67.63873481 Ry
     xc contribution           =     -14.01220695 Ry
     ewald contribution        =      45.86766511 Ry
     smearing contrib. (-TS)   =      -0.07183245 Ry

     convergence has been achieved in  13 iterations

     Forces acting on atoms (cartesian axes, Ry/au):

     atom    1 type  1   force =    -0.00018153    0.00165780    0.00000000
     atom    2 type  1   force =    -0.00075960   -0.00080566    0.00000000
     atom    3 type  1   force =     0.00096059   -0.00081266    0.00000000
     atom    4 type  1   force =     0.00090524   -0.00074638    0.00000000
     atom    5 type  1   force =    -0.00005838   -0.00036398    0.00000000
     atom    6 type  1   force =    -0.00095385   -0.00057432    0.00000000
     atom    7 type  1   force =     0.00008752    0.00164521    0.00000000

     Total force =     0.003325     Total SCF correction =     0.000009

     Computing stress (Cartesian axis) and pressure

          total   stress  (Ry/bohr**3)                   (kbar)     P=   -0.05
  -0.00000219   0.00000005   0.00000000         -0.32      0.01      0.00
   0.00000005   0.00000124   0.00000000          0.01      0.18      0.00
   0.00000000   0.00000000  -0.00000001          0.00      0.00     -0.00

     Writing output data file 3al_planar_2x2_vcr.save/

     General routines

     Parallel routines

   This run was terminated on:  11:27:16  25Nov2020

   JOB DONE.