     Program PWSCF v.6.3MaX starts on 26Nov2020 at  8:36:19

     R & G space division:  proc/nbgrp/npool/nimage =       8
     Waiting for input...
     Reading input from standard input

     Current dimensions of program PWSCF are:
     Max number of different atomic species (ntypx) = 10
     Max number of k-points (npk) =  40000
     Max angular momentum in pseudopotentials (lmaxx) =  3

     Subspace diagonalization in iterative solution of the eigenvalue problem:
     a serial algorithm will be used

     bravais-lattice index     =            4
     lattice parameter (alat)  =      33.6810  a.u.
     unit-cell volume          =   37130.3117 (a.u.)^3
     number of atoms/cell      =           31
     number of atomic types    =            1
     number of electrons       =        93.00
     number of Kohn-Sham states=           56
     kinetic-energy cutoff     =      80.0000  Ry
     charge density cutoff     =     320.0000  Ry
     convergence threshold     =      1.0E-06
     mixing beta               =       0.4000
     number of iterations used =            8  plain     mixing
     Exchange-correlation      = PBE ( 1  4  3  4 0 0)
     nstep                     =          300

     celldm(1)=  33.680967  celldm(2)=   0.000000  celldm(3)=   1.122133
     celldm(4)=   0.000000  celldm(5)=   0.000000  celldm(6)=   0.000000

     crystal axes: (cart. coord. in units of alat)
               a(1) = (   1.000000   0.000000   0.000000 )
               a(2) = (  -0.500000   0.866025   0.000000 )
               a(3) = (   0.000000   0.000000   1.122133 )

     reciprocal axes: (cart. coord. in units 2 pi/alat)
               b(1) = (  1.000000  0.577350  0.000000 )
               b(2) = (  0.000000  1.154701  0.000000 )
               b(3) = (  0.000000  0.000000  0.891160 )

     PseudoPot. # 1 for Al read from file:
     ./Al.upf
     MD5 check sum: 4974d48a734c9d7d1eb6780a1419d19d
     Pseudo is Norm-conserving + core correction, Zval =  3.0
     Generated using ONCVPSP code by D. R. Hamann
     Using radial grid of 1876 points,  6 beta functions with:
                l(1) =   0
                l(2) =   0
                l(3) =   1
                l(4) =   1
                l(5) =   2
                l(6) =   2

     atomic species   valence    mass     pseudopotential
        Al             3.00    29.98200     Al( 1.00)

      4 Sym. Ops. (no inversion) found ( 2 have fractional translation)

   Cartesian axes

     site n.     atom                  positions (alat units)
         1           Al  tau(   1) = (  -0.0000000   0.1443393   0.0000000  )
         2           Al  tau(   2) = (   0.1250015   0.0721696   0.0000000  )
         3           Al  tau(   3) = (  -0.1249997   0.3608472   0.0000000  )
         4           Al  tau(   4) = (   0.0000018   0.2886775   0.0000000  )
         5           Al  tau(   5) = (  -0.2499994   0.5773550   0.0000000  )
         6           Al  tau(   6) = (  -0.1249979   0.5051854   0.0000000  )
         7           Al  tau(   7) = (  -0.3749991   0.7938629   0.0000000  )
         8           Al  tau(   8) = (  -0.2499976   0.7216932   0.0000000  )
         9           Al  tau(   9) = (   0.2500011   0.1443403   0.0000000  )
        10           Al  tau(  10) = (   0.3750027   0.0721706   0.0000000  )
        11           Al  tau(  11) = (   0.1250014   0.3608482   0.0000000  )
        12           Al  tau(  12) = (   0.2500030   0.2886785   0.0000000  )
        13           Al  tau(  13) = (   0.0000017   0.5773560   0.0000000  )
        14           Al  tau(  14) = (   0.1250033   0.5051864   0.0000000  )
        15           Al  tau(  15) = (  -0.1249980   0.7938639   0.0000000  )
        16           Al  tau(  16) = (   0.0000036   0.7216942   0.0000000  )
        17           Al  tau(  17) = (   0.5000023   0.1443413   0.0000000  )
        18           Al  tau(  18) = (   0.6250038   0.0721717   0.0000000  )
        19           Al  tau(  19) = (   0.3750026   0.3608492   0.0000000  )
        20           Al  tau(  20) = (   0.5000041   0.2886795   0.0000000  )
        21           Al  tau(  21) = (   0.3750044   0.5051874   0.0000000  )
        22           Al  tau(  22) = (   0.1250032   0.7938649   0.0000000  )
        23           Al  tau(  23) = (   0.2500047   0.7216953   0.0000000  )
        24           Al  tau(  24) = (   0.7500035   0.1443423   0.0000000  )
        25           Al  tau(  25) = (   0.8750050   0.0721727   0.0000000  )
        26           Al  tau(  26) = (   0.6250038   0.3608502   0.0000000  )
        27           Al  tau(  27) = (   0.7500053   0.2886805   0.0000000  )
        28           Al  tau(  28) = (   0.5000041   0.5773581   0.0000000  )
        29           Al  tau(  29) = (   0.6250056   0.5051884   0.0000000  )
        30           Al  tau(  30) = (   0.3750044   0.7938660   0.0000000  )
        31           Al  tau(  31) = (   0.5000059   0.7216963   0.0000000  )

     number of k points=     1  Methfessel-Paxton smearing, width (Ry)=  0.0500
                       cart. coord. in units 2pi/alat
        k(    1) = (   0.0000000   0.0000000   0.0000000), wk =   2.0000000

     Initial potential from superposition of free atoms

     starting charge   92.92414, renormalised to   93.00000

     negative rho (up, down):  9.278E-05 0.000E+00
     Starting wfcs are  124 randomized atomic wfcs

     Self-consistent Calculation

     iteration #  1     ecut=    80.00 Ry     beta= 0.40
     Davidson diagonalization with overlap
     ethr =  1.00E-02,  avg # of iterations =  2.0

     total energy              =    -140.64227233 Ry
     Harris-Foulkes estimate   =    -141.23607662 Ry
     estimated scf accuracy    <       1.54862648 Ry

[...]

     negative rho (up, down):  7.226E-08 0.000E+00

[...]

     End of self-consistent calculation

          k = 0.0000 0.0000 0.0000 (448403 PWs)   bands (ev):

    -9.9530  -9.4486  -9.4331  -9.4327  -9.4261  -9.4256  -9.1458  -8.4049
    -8.4048  -8.3882  -8.3881  -8.3796  -8.3036  -8.2570  -8.2568  -7.5865
    -6.9326  -6.9324  -6.8233  -6.4864  -6.4773  -6.4773  -6.3701  -6.3701
    -5.4640  -4.8435  -4.8434  -4.8370  -4.7357  -4.7356  -4.4782  -4.4682
    -4.4428  -4.4428  -4.1225  -4.1222  -3.9779  -3.4714  -3.4687  -3.4685
    -3.4578  -3.4576  -3.4017  -3.2745  -3.2744  -3.2223  -3.2072  -2.9743
    -2.9654  -2.9652  -2.9389  -2.5198  -2.5198  -2.4493  -2.4490  -2.4313

     the Fermi energy is    -3.0911 ev

!    total energy              =    -140.93611190 Ry
     Harris-Foulkes estimate   =    -140.93611230 Ry
     estimated scf accuracy    <       0.00000050 Ry

     The total energy is the sum of the following terms:

     one-electron contribution =    -502.03691948 Ry
     hartree contribution      =     259.76390376 Ry
     xc contribution           =     -61.33581543 Ry
     ewald contribution        =     162.75371665 Ry
     smearing contrib. (-TS)   =      -0.08099739 Ry

     convergence has been achieved in  17 iterations

[...]

     Forces acting on atoms (cartesian axes, Ry/au):

     atom    1 type  1   force =    -0.00198641    0.00115687    0.00000000
     atom    2 type  1   force =    -0.00044852    0.00029350    0.00000000
     atom    3 type  1   force =    -0.00185803   -0.00106157    0.00000000
     atom    4 type  1   force =     0.00527150    0.00123429    0.00000000
     atom    5 type  1   force =     0.00000000   -0.00231240    0.00000000
     atom    6 type  1   force =     0.00371262    0.00394252    0.00000000
     atom    7 type  1   force =     0.00113973    0.00064452    0.00000000
     atom    8 type  1   force =     0.00000000   -0.00053600    0.00000000
     atom    9 type  1   force =     0.00000000   -0.00130665    0.00000000
     atom   10 type  1   force =     0.00044852    0.00029350    0.00000000
     atom   11 type  1   force =     0.00064100   -0.00329726    0.00000000
     atom   12 type  1   force =     0.00000000    0.00129351    0.00000000
     atom   13 type  1   force =    -0.00253467    0.00218176    0.00000000
     atom   14 type  1   force =     0.01310225    0.00757866    0.00000000
     atom   15 type  1   force =    -0.00113973    0.00064452    0.00000000
     atom   16 type  1   force =     0.00114088   -0.00065171    0.00000000
     atom   17 type  1   force =     0.00198641    0.00115687    0.00000000
     atom   18 type  1   force =    -0.00153937   -0.00517839    0.00000000
     atom   19 type  1   force =    -0.00064100   -0.00329726    0.00000000
     atom   20 type  1   force =    -0.00527150    0.00123429    0.00000000
     atom   21 type  1   force =    -0.01310225    0.00757866    0.00000000
     atom   22 type  1   force =    -0.00316825    0.00109743    0.00000000
     atom   23 type  1   force =     0.00000000   -0.01514855    0.00000000
     atom   24 type  1   force =     0.00000000    0.00214872    0.00000000
     atom   25 type  1   force =     0.00153937   -0.00517839    0.00000000
     atom   26 type  1   force =     0.00185803   -0.00106157    0.00000000
     atom   27 type  1   force =     0.00000000   -0.00001990    0.00000000
     atom   28 type  1   force =     0.00253467    0.00218176    0.00000000
     atom   29 type  1   force =    -0.00371262    0.00394252    0.00000000
     atom   30 type  1   force =     0.00316825    0.00109743    0.00000000
     atom   31 type  1   force =    -0.00114088   -0.00065171    0.00000000

     Total force =     0.031170     Total SCF correction =     0.000520

     Computing stress (Cartesian axis) and pressure

     negative rho (up, down):  8.663E-05 0.000E+00
          total   stress  (Ry/bohr**3)                   (kbar)     P=   -0.57
  -0.00000579   0.00000000   0.00000000         -0.85      0.00      0.00
   0.00000000  -0.00000578   0.00000000          0.00     -0.85      0.00
   0.00000000   0.00000000   0.00000001          0.00      0.00      0.00

     BFGS Geometry Optimization

     number of scf cycles    =   1
     number of bfgs steps    =   0

     enthalpy new            =    -140.9361119007 Ry

     new trust radius        =       0.0151485462 bohr
     new conv_thr            =       0.0000010000 Ry

     new unit-cell volume =  37119.58017 a.u.^3 (  5500.55421 Ang^3 )
     density =      0.28059 g/cm^3

CELL_PARAMETERS (alat= 33.68096681)
   0.999855358  -0.000000000   0.000000000
  -0.499927679   0.865900348   0.000000000
   0.000000000   0.000000000   1.122132950

ATOMIC_POSITIONS (angstrom)
Al      -0.001051596   2.572828484   0.000000000
Al       2.227367180   1.286262974   0.000000000
Al      -2.228556067   6.429960576   0.000000000
Al       0.002821246   5.145066622   0.000000000
Al      -4.455145376  10.287604639   0.000000000
Al      -2.225575950   9.004805424   0.000000000
Al      -6.682114739  14.147475019   0.000000000
Al      -4.455112695  12.860741706   0.000000000
Al       4.455175712   2.571543228   0.000000000
Al       6.683018097   1.286281168   0.000000000
Al       2.227942473   6.428795867   0.000000000
Al       4.455208393   5.145116146   0.000000000
Al      -0.001310173  10.290000695   0.000000000
Al       2.234568407   9.006747501   0.000000000
Al      -2.228144504  14.147493213   0.000000000
[...]
     NEW-OLD atomic charge density approx. for the potential

     negative rho (up, down):  8.664E-05 0.000E+00
     extrapolated charge   92.97313, renormalised to   93.00000

[...]

     Threshold (ethr) on eigenvalues was too large:
     Diagonalizing with lowered threshold

     Davidson diagonalization with overlap
     ethr =  5.29E-08,  avg # of iterations =  5.0

[...]

     enthalpy old            =    -140.9361119007 Ry
     enthalpy new            =    -140.9371129264 Ry

     CASE: enthalpy_new < enthalpy_old

     WARNING: bfgs curvature condition failed, Theta= 0.853
     new trust radius        =       0.0227195381 bohr
     new conv_thr            =       0.0000010000 Ry

[...]

     iteration #  1     ecut=    80.00 Ry     beta= 0.40
     Davidson diagonalization with overlap
     c_bands:  1 eigenvalues not converged
     ethr =  1.00E-06,  avg # of iterations = 20.0

[...]

     Writing output data file 21al_planar_2x2_vcr.save/
     NEW-OLD atomic charge density approx. for the potential

[...]

     Writing output data file 21al_planar_2x2_vcr.save/
     NEW-OLD atomic charge density approx. for the potential
     Check: negative starting charge=   -0.000121

[...]

     Writing output data file 21al_planar_2x2_vcr.save/
     Check: negative starting charge=   -0.000121
     NEW-OLD atomic charge density approx. for the potential
     Check: negative starting charge=   -0.000133

[...]

     CASE: enthalpy_new > enthalpy_old

[...]

     WARNING: info= 49 for Hessian
     uphill step: resetting bfgs history

[...]

     WARNING: bfgs curvature condition failed, Theta= 0.319
     new trust radius        =       0.0586088109 bohr
     new conv_thr            =       0.0000010000 Ry

[...]

     CASE: enthalpy_new < enthalpy_old

[...]

     new trust radius        =       0.0004391249 bohr
     new conv_thr            =       0.0000000100 Ry

[...]

     new trust radius        =       0.0000023542 bohr

     trust_radius < trust_radius_min

     resetting bfgs history

     new conv_thr            =       0.0000000100 Ry

[...]

     negative rho (up, down):  2.730E-05 0.000E+00
     extrapolated charge   93.00053, renormalised to   93.00000

[...]

     number of scf cycles    = 184
     number of bfgs steps    = 180

     enthalpy old            =    -141.8517397659 Ry
     enthalpy new            =    -141.8516752829 Ry

     CASE: enthalpy_new > enthalpy_old

     new trust radius        =       0.0000043172 bohr

     trust_radius < trust_radius_min

     resetting bfgs history

     Message from routine bfgs:
     history already reset at previous step: stopping
     new conv_thr            =       0.0000000100 Ry

     new unit-cell volume =  28244.41615 a.u.^3 (  4185.39060 Ang^3 )
     density =      0.36875 g/cm^3

[...]

ATOMIC_POSITIONS (angstrom)
Al      -1.984702653   3.515050562   0.000000000
Al       1.440910397   1.288285991   0.000000000
Al      -1.102546009   6.109829941   0.000000000
Al       0.598283444   3.774974975   0.000000000
Al      -3.858437324   7.510722155   0.000000000
Al      -1.405853099   8.830150811   0.000000000
Al      -5.230088666  12.056622347   0.000000000
Al      -3.858409021   9.926328916   0.000000000
Al       3.858463598   0.671652107   0.000000000
Al       6.276046116   1.288301975   0.000000000
Al       2.512599100   5.459716052   0.000000000
Al       3.858491901   3.219283495   0.000000000
Al       0.983234116  10.046448633   0.000000000
Al       2.427017366   7.965256609   0.000000000
Al      -2.486758694  12.056638331   0.000000000
Al      -0.023173663  12.448633142   0.000000000
Al       9.701629848   3.515082531   0.000000000
Al       8.951204950   1.127328326   0.000000000
Al       5.204355384   5.459732036   0.000000000
Al       7.118700358   3.775006944   0.000000000
Al       5.289993724   7.965272593   0.000000000
Al       2.538386875  12.397178642   0.000000000
Al       3.858519189  10.129571159   0.000000000
Al      11.575391808   1.317632685   0.000000000
Al      14.199607984   1.127344310   0.000000000
Al       8.819500492   6.109877894   0.000000000
Al      11.575420111   5.095474167   0.000000000
Al       6.733747656  10.046480601   0.000000000
Al       9.122864189   8.830198764   0.000000000
Al       5.178622185  12.397194626   0.000000000
Al       7.740212042  12.448665111   0.000000000

     Writing output data file 21al_planar_2x2_vcr.save/
     Check: negative starting charge=   -0.000136
     NEW-OLD atomic charge density approx. for the potential
     Check: negative starting charge=   -0.000136

[...]

     Threshold (ethr) on eigenvalues was too large:
     Diagonalizing with lowered threshold

     Davidson diagonalization with overlap
     ethr =  2.05E-10,  avg # of iterations =  2.0

[...]

     bfgs converged in 185 scf cycles and 180 bfgs steps
     (criteria: energy <  1.0E-05 Ry, force <  1.0E-04Ry/Bohr, cell <  5.0E-05kbar)

     End of BFGS Geometry Optimization

     Final enthalpy =    -141.8516752794 Ry
Begin final coordinates
     new unit-cell volume =  28244.41615 a.u.^3 (  4185.39060 Ang^3 )
     density =      0.36875 g/cm^3

CELL_PARAMETERS (alat= 33.68096681)
   0.865937900  -0.000000000   0.000000000
  -0.432968950   0.760760386   0.000000000
   0.000000000   0.000000000   1.122132950

ATOMIC_POSITIONS (angstrom)
Al      -1.984702653   3.515050562   0.000000000
Al       1.440910397   1.288285991   0.000000000
Al      -1.102546009   6.109829941   0.000000000
Al       0.598283444   3.774974975   0.000000000
Al      -3.858437324   7.510722155   0.000000000
Al      -1.405853099   8.830150811   0.000000000
Al      -5.230088666  12.056622347   0.000000000
Al      -3.858409021   9.926328916   0.000000000
Al       3.858463598   0.671652107   0.000000000
Al       6.276046116   1.288301975   0.000000000
Al       2.512599100   5.459716052   0.000000000
Al       3.858491901   3.219283495   0.000000000
Al       0.983234116  10.046448633   0.000000000
Al       2.427017366   7.965256609   0.000000000
Al      -2.486758694  12.056638331   0.000000000
Al      -0.023173663  12.448633142   0.000000000
Al       9.701629848   3.515082531   0.000000000
Al       8.951204950   1.127328326   0.000000000
Al       5.204355384   5.459732036   0.000000000
Al       7.118700358   3.775006944   0.000000000
Al       5.289993724   7.965272593   0.000000000
Al       2.538386875  12.397178642   0.000000000
Al       3.858519189  10.129571159   0.000000000
Al      11.575391808   1.317632685   0.000000000
Al      14.199607984   1.127344310   0.000000000
Al       8.819500492   6.109877894   0.000000000
Al      11.575420111   5.095474167   0.000000000
Al       6.733747656  10.046480601   0.000000000
Al       9.122864189   8.830198764   0.000000000
Al       5.178622185  12.397194626   0.000000000
Al       7.740212042  12.448665111   0.000000000
End final coordinates

     Writing output data file 21al_planar_2x2_vcr.save/

     A final scf calculation at the relaxed structure.
     The G-vectors are recalculated for the final unit cell
     Results may differ from those at the preceding step.

     bravais-lattice index     =            4
     lattice parameter (alat)  =      33.6810  a.u.
     unit-cell volume          =   28244.4161 (a.u.)^3
     number of atoms/cell      =           31
     number of atomic types    =            1
     number of electrons       =        93.00
     number of Kohn-Sham states=           56
     kinetic-energy cutoff     =      80.0000  Ry
     charge density cutoff     =     320.0000  Ry
     convergence threshold     =      1.0E-08
     mixing beta               =       0.4000
     number of iterations used =            8  plain     mixing
     Exchange-correlation      = PBE ( 1  4  3  4 0 0)

     celldm(1)=  33.680967  celldm(2)=   0.000000  celldm(3)=   1.122133
     celldm(4)=   0.000000  celldm(5)=   0.000000  celldm(6)=   0.000000

     crystal axes: (cart. coord. in units of alat)
               a(1) = (   0.865938  -0.000000   0.000000 )
               a(2) = (  -0.432969   0.760760   0.000000 )
               a(3) = (   0.000000   0.000000   1.122133 )

     reciprocal axes: (cart. coord. in units 2 pi/alat)
               b(1) = (  1.154817  0.657237  0.000000 )
               b(2) = (  0.000000  1.314474  0.000000 )
               b(3) = (  0.000000  0.000000  0.891160 )

     PseudoPot. # 1 for Al read from file:
     ./Al.upf
     MD5 check sum: 4974d48a734c9d7d1eb6780a1419d19d
     Pseudo is Norm-conserving + core correction, Zval =  3.0
     Generated using ONCVPSP code by D. R. Hamann
     Using radial grid of 1876 points,  6 beta functions with:
                l(1) =   0
                l(2) =   0
                l(3) =   1
                l(4) =   1
                l(5) =   2
                l(6) =   2

     atomic species   valence    mass     pseudopotential
        Al             3.00    29.98200     Al( 1.00)

      4 Sym. Ops. (no inversion) found ( 2 have fractional translation)

   Cartesian axes

     site n.     atom                  positions (alat units)
         1           Al  tau(   1) = (  -0.1113550   0.1972177   0.0000000  )
         2           Al  tau(   2) = (   0.0808447   0.0722814   0.0000000  )
         3           Al  tau(   3) = (  -0.0618602   0.3428021   0.0000000  )
         4           Al  tau(   4) = (   0.0335677   0.2118012   0.0000000  )
         5           Al  tau(   5) = (  -0.2164840   0.4214014   0.0000000  )
         6           Al  tau(   6) = (  -0.0788777   0.4954302   0.0000000  )
         7           Al  tau(   7) = (  -0.2934427   0.6764567   0.0000000  )
         8           Al  tau(   8) = (  -0.2164824   0.5569330   0.0000000  )
         9           Al  tau(   9) = (   0.2164855   0.0376841   0.0000000  )
        10           Al  tau(  10) = (   0.3521279   0.0722823   0.0000000  )
        11           Al  tau(  11) = (   0.1409735   0.3063264   0.0000000  )
        12           Al  tau(  12) = (   0.2164870   0.1806232   0.0000000  )
        13           Al  tau(  13) = (   0.0551660   0.5636726   0.0000000  )
        14           Al  tau(  14) = (   0.1361718   0.4469038   0.0000000  )
        15           Al  tau(  15) = (  -0.1395237   0.6764576   0.0000000  )
        16           Al  tau(  16) = (  -0.0013002   0.6984511   0.0000000  )
        17           Al  tau(  17) = (   0.5443259   0.1972195   0.0000000  )
        18           Al  tau(  18) = (   0.5022221   0.0632506   0.0000000  )
        19           Al  tau(  19) = (   0.2919989   0.3063273   0.0000000  )
        20           Al  tau(  20) = (   0.3994064   0.2118030   0.0000000  )
        21           Al  tau(  21) = (   0.2968038   0.4469047   0.0000000  )
        22           Al  tau(  22) = (   0.1424204   0.6955641   0.0000000  )
        23           Al  tau(  23) = (   0.2164886   0.5683363   0.0000000  )
        24           Al  tau(  24) = (   0.6494564   0.0739280   0.0000000  )
        25           Al  tau(  25) = (   0.7966924   0.0632515   0.0000000  )
        26           Al  tau(  26) = (   0.4948326   0.3428048   0.0000000  )
        27           Al  tau(  27) = (   0.6494580   0.2858900   0.0000000  )
        28           Al  tau(  28) = (   0.3778080   0.5636743   0.0000000  )
        29           Al  tau(  29) = (   0.5118533   0.4954328   0.0000000  )
        30           Al  tau(  30) = (   0.2905551   0.6955650   0.0000000  )
        31           Al  tau(  31) = (   0.4342773   0.6984529   0.0000000  )

     number of k points=     1  Methfessel-Paxton smearing, width (Ry)=  0.0500
                       cart. coord. in units 2pi/alat
        k(    1) = (   0.0000000   0.0000000   0.0000000), wk =   2.0000000

     Initial potential from superposition of free atoms

     starting charge   92.92414, renormalised to   93.00000

     negative rho (up, down):  7.471E-05 0.000E+00
     Starting wfcs are  124 randomized atomic wfcs

     Self-consistent Calculation

     iteration #  1     ecut=    80.00 Ry     beta= 0.40
     Davidson diagonalization with overlap
     c_bands:  1 eigenvalues not converged
     ethr =  1.00E-06,  avg # of iterations = 20.0

[...]

     total energy              =    -141.85150283 Ry
     Harris-Foulkes estimate   =    -141.85150284 Ry
     estimated scf accuracy    <       0.00000002 Ry

     iteration # 20     ecut=    80.00 Ry     beta= 0.40
     Davidson diagonalization with overlap
     ethr =  1.84E-11,  avg # of iterations =  5.0

[...]

     End of self-consistent calculation

          k = 0.0000 0.0000 0.0000 (341187 PWs)   bands (ev):

   -11.3535 -10.7453 -10.6761 -10.5479 -10.3846 -10.2836  -9.9010  -9.1547
    -8.9084  -8.8943  -8.8144  -8.6652  -8.3812  -8.2872  -8.1565  -7.9283
    -7.7578  -7.6990  -7.3534  -6.0967  -6.0550  -6.0404  -5.8274  -5.7876
    -5.6965  -5.6495  -5.5628  -5.4565  -5.2951  -5.0564  -5.0495  -4.7180
    -4.5936  -4.3172  -4.1659  -4.0906  -4.0441  -3.9781  -3.8550  -3.7995
    -3.7233  -3.5008  -3.4949  -3.4740  -2.5765  -2.4317  -2.3919  -2.3684
    -2.3568  -2.2941  -2.2694  -2.0986  -2.0131  -1.9858  -1.7788  -1.6685

     the Fermi energy is    -2.5262 ev

!    total energy              =    -141.85150283 Ry
     Harris-Foulkes estimate   =    -141.85150284 Ry
     estimated scf accuracy    <          3.1E-09 Ry

     The total energy is the sum of the following terms:

     one-electron contribution =    -652.05832851 Ry
     hartree contribution      =     334.94706583 Ry
     xc contribution           =     -63.19207667 Ry
     ewald contribution        =     238.49166990 Ry
     smearing contrib. (-TS)   =      -0.03983338 Ry

     convergence has been achieved in  20 iterations

     negative rho (up, down):  2.730E-05 0.000E+00

     Forces acting on atoms (cartesian axes, Ry/au):

     atom    1 type  1   force =    -0.00025251   -0.00000022    0.00000000
     atom    2 type  1   force =     0.00025567    0.00068900    0.00000000
     atom    3 type  1   force =    -0.00009244    0.00033509    0.00000000
     atom    4 type  1   force =     0.00066619   -0.00015353    0.00000000
     atom    5 type  1   force =     0.00000000    0.00040548    0.00000000
     atom    6 type  1   force =     0.00010929   -0.00016894    0.00000000
     atom    7 type  1   force =     0.00013225   -0.00004086    0.00000000
     atom    8 type  1   force =    -0.00000000   -0.00060991    0.00000000
     atom    9 type  1   force =    -0.00000000   -0.00043320    0.00000000
     atom   10 type  1   force =    -0.00025567    0.00068900    0.00000000
     atom   11 type  1   force =     0.00015348    0.00020843    0.00000000
     atom   12 type  1   force =    -0.00000000   -0.00000921    0.00000000
     atom   13 type  1   force =    -0.00002387    0.00018469    0.00000000
     atom   14 type  1   force =     0.00030351    0.00014622    0.00000000
     atom   15 type  1   force =    -0.00013225   -0.00004086    0.00000000
     atom   16 type  1   force =     0.00001888   -0.00063766    0.00000000
     atom   17 type  1   force =     0.00025251   -0.00000022    0.00000000
     atom   18 type  1   force =     0.00003241    0.00059890    0.00000000
     atom   19 type  1   force =    -0.00015348    0.00020843    0.00000000
     atom   20 type  1   force =    -0.00066619   -0.00015353    0.00000000
     atom   21 type  1   force =    -0.00030351    0.00014622    0.00000000
     atom   22 type  1   force =     0.00046803    0.00055250    0.00000000
     atom   23 type  1   force =    -0.00000000   -0.00195433    0.00000000
     atom   24 type  1   force =    -0.00000000   -0.00047222    0.00000000
     atom   25 type  1   force =    -0.00003241    0.00059890    0.00000000
     atom   26 type  1   force =     0.00009244    0.00033509    0.00000000
     atom   27 type  1   force =    -0.00000000   -0.00035382    0.00000000
     atom   28 type  1   force =     0.00002387    0.00018469    0.00000000
     atom   29 type  1   force =    -0.00010929   -0.00016894    0.00000000
     atom   30 type  1   force =    -0.00046803    0.00055250    0.00000000
     atom   31 type  1   force =    -0.00001888   -0.00063766    0.00000000

     Total force =     0.003226     Total SCF correction =     0.000058

     Computing stress (Cartesian axis) and pressure

     negative rho (up, down):  2.730E-05 0.000E+00
          total   stress  (Ry/bohr**3)                   (kbar)     P=    0.06
   0.00000011   0.00000000   0.00000000          0.02      0.00      0.00
   0.00000000   0.00000103   0.00000000          0.00      0.15      0.00
   0.00000000   0.00000000  -0.00000001          0.00      0.00     -0.00

     Writing output data file 21al_planar_2x2_vcr.save/

     General routines

     Parallel routines

      57h

   This run was terminated on:   3:33:53  27Nov2020

   JOB DONE.